*SPEF "ieee 1481-1999"
*DESIGN "soc_top"
*DATE "10:35:06 Friday September 11, 2026"
*VENDOR "The OpenROAD Project"
*PROGRAM "OpenROAD"
*VERSION "dcf36133a369abc8f3c5e5738cd4d82e4903c0e0"
*DESIGN_FLOW "NAME_SCOPE LOCAL" "PIN_CAP NONE"
*DIVIDER /
*DELIMITER :
*BUS_DELIMITER []
*T_UNIT 1 NS
*C_UNIT 1 PF
*R_UNIT 1 OHM
*L_UNIT 1 HENRY

*NAME_MAP
*1 Hsync
*4 Vsync
*5 net
*6 net64
*7 net65
*8 net66
*9 net67
*10 net68
*11 net69
*12 net70
*13 clk
*14 cpu_stall
*15 net71
*16 net72
*17 net73
*18 net74
*19 net75
*20 net76
*21 net77
*22 net78
*23 net79
*24 net80
*25 net90
*26 net91
*27 net92
*28 net93
*29 net94
*30 net95
*31 net96
*32 net97
*33 net98
*34 net99
*35 net81
*36 net100
*37 net101
*38 net102
*39 net103
*40 net104
*41 net105
*42 net106
*43 net107
*44 net108
*45 net109
*46 net82
*47 net110
*48 net111
*49 net83
*50 net84
*51 net85
*52 net86
*53 net87
*54 net88
*55 net89
*56 net112
*57 net113
*58 net123
*59 net124
*60 net125
*61 net126
*62 net127
*63 net128
*64 net129
*65 net130
*66 net131
*67 net132
*68 net114
*69 net133
*70 net134
*71 net135
*72 net136
*73 net137
*74 net138
*75 net139
*76 net140
*77 net141
*78 net142
*79 net115
*80 net143
*81 net144
*82 net116
*83 net117
*84 net118
*85 net119
*86 net120
*87 net121
*88 net122
*89 net145
*90 net146
*91 pcRegister[10]
*92 pcRegister[11]
*93 pcRegister[12]
*94 pcRegister[13]
*95 pcRegister[14]
*96 pcRegister[15]
*97 pcRegister[16]
*98 pcRegister[17]
*99 pcRegister[18]
*100 pcRegister[19]
*101 net147
*102 pcRegister[20]
*103 pcRegister[21]
*104 pcRegister[22]
*105 pcRegister[23]
*106 pcRegister[24]
*107 pcRegister[25]
*108 pcRegister[26]
*109 pcRegister[27]
*110 pcRegister[28]
*111 pcRegister[29]
*112 pcRegister[2]
*113 pcRegister[30]
*114 pcRegister[31]
*115 pcRegister[3]
*116 pcRegister[4]
*117 pcRegister[5]
*118 pcRegister[6]
*119 pcRegister[7]
*120 pcRegister[8]
*121 pcRegister[9]
*122 net148
*123 net149
*124 net150
*125 net151
*126 net152
*127 net153
*128 net154
*129 net155
*130 reset
*131 _0000_
*132 _0001_
*133 _0002_
*134 _0003_
*135 _0004_
*136 _0005_
*137 _0006_
*138 _0007_
*139 _0008_
*140 _0009_
*141 _0010_
*142 _0011_
*143 _0012_
*144 _0013_
*145 _0014_
*146 _0015_
*147 _0016_
*148 _0017_
*149 _0018_
*150 _0019_
*151 _0020_
*152 _0021_
*153 _0022_
*154 _0023_
*155 _0024_
*156 _0025_
*157 _0026_
*158 _0027_
*159 _0028_
*160 _0029_
*161 _0030_
*162 _0031_
*163 _0032_
*164 _0033_
*165 _0034_
*166 _0035_
*167 _0036_
*168 _0037_
*169 _0038_
*170 _0039_
*171 _0040_
*172 _0041_
*173 _0042_
*174 _0043_
*175 _0044_
*176 _0045_
*177 _0046_
*178 _0047_
*179 _0048_
*180 _0049_
*181 _0050_
*182 _0051_
*183 _0052_
*184 _0053_
*185 _0054_
*186 _0055_
*187 _0056_
*188 _0057_
*189 _0058_
*190 _0059_
*191 _0060_
*192 _0061_
*193 _0062_
*194 _0063_
*195 _0064_
*196 _0065_
*197 _0066_
*198 _0067_
*199 _0068_
*200 _0069_
*201 _0070_
*202 _0071_
*203 _0072_
*204 _0073_
*205 _0074_
*206 _0075_
*207 _0076_
*208 _0077_
*209 _0078_
*210 _0079_
*211 _0080_
*212 _0081_
*213 _0082_
*214 _0083_
*215 _0084_
*216 _0085_
*217 _0086_
*218 _0087_
*219 _0088_
*220 _0089_
*221 _0090_
*222 _0091_
*223 _0092_
*224 _0093_
*225 _0094_
*226 _0095_
*227 _0096_
*228 _0097_
*229 _0098_
*230 _0099_
*231 _0100_
*232 _0101_
*233 _0102_
*234 _0103_
*235 _0104_
*236 _0105_
*237 _0106_
*238 _0107_
*239 _0108_
*240 _0109_
*241 _0110_
*242 _0111_
*243 _0112_
*244 _0113_
*245 _0114_
*246 _0115_
*247 _0116_
*248 _0117_
*249 _0118_
*250 _0119_
*251 _0120_
*252 _0121_
*253 _0122_
*254 _0123_
*255 _0124_
*256 _0125_
*257 _0126_
*258 _0127_
*259 _0128_
*260 _0129_
*261 _0130_
*262 _0131_
*263 _0132_
*264 _0133_
*265 _0134_
*266 _0135_
*267 _0136_
*268 _0137_
*269 _0138_
*270 _0139_
*271 _0140_
*272 _0141_
*273 _0142_
*274 _0143_
*275 _0144_
*276 _0145_
*277 _0146_
*278 _0147_
*279 _0148_
*280 _0149_
*281 _0150_
*282 _0151_
*283 _0152_
*284 _0153_
*285 _0154_
*286 _0155_
*287 _0156_
*288 _0157_
*289 _0158_
*290 _0159_
*291 _0160_
*292 _0161_
*293 _0162_
*294 _0163_
*295 _0164_
*296 _0165_
*297 _0166_
*298 _0167_
*299 _0168_
*300 _0169_
*301 _0170_
*302 _0171_
*303 _0172_
*304 _0173_
*305 _0174_
*306 _0175_
*307 _0176_
*308 _0177_
*309 _0178_
*310 _0179_
*311 _0180_
*312 _0181_
*313 _0182_
*314 _0183_
*315 _0184_
*316 _0185_
*317 _0186_
*318 _0187_
*319 _0188_
*320 _0189_
*321 _0190_
*322 _0191_
*323 _0192_
*324 _0193_
*325 _0194_
*326 _0195_
*327 _0196_
*328 _0197_
*329 _0198_
*330 _0199_
*331 _0200_
*332 _0201_
*333 _0202_
*334 _0203_
*335 _0204_
*336 _0205_
*337 _0206_
*338 _0207_
*339 _0208_
*340 _0209_
*341 _0210_
*342 _0211_
*343 _0212_
*344 _0213_
*345 _0214_
*346 _0215_
*347 _0216_
*348 _0217_
*349 _0218_
*350 _0219_
*351 _0220_
*352 _0221_
*353 _0222_
*354 _0223_
*355 _0224_
*356 _0225_
*357 _0226_
*358 _0227_
*359 _0228_
*360 _0229_
*361 _0230_
*362 _0231_
*363 _0232_
*364 _0233_
*365 _0234_
*366 _0235_
*367 _0236_
*368 _0237_
*369 _0238_
*370 _0239_
*371 _0240_
*372 _0241_
*373 _0242_
*374 _0243_
*375 _0244_
*376 _0245_
*377 _0246_
*378 _0247_
*379 _0248_
*380 _0249_
*381 _0250_
*382 _0251_
*383 _0252_
*384 _0253_
*385 _0254_
*386 _0255_
*387 _0256_
*388 _0257_
*389 _0258_
*390 _0259_
*391 _0260_
*392 _0261_
*393 _0262_
*394 _0263_
*395 _0264_
*396 _0265_
*397 _0266_
*398 _0267_
*399 _0268_
*400 _0269_
*401 _0270_
*402 _0271_
*403 _0272_
*404 _0273_
*405 _0274_
*406 _0275_
*407 _0276_
*408 _0277_
*409 _0278_
*410 _0279_
*411 _0280_
*412 _0281_
*413 _0282_
*414 _0283_
*415 _0284_
*416 _0285_
*417 _0286_
*418 _0287_
*419 _0288_
*420 _0289_
*421 _0290_
*422 _0291_
*423 _0292_
*424 _0293_
*425 _0294_
*426 _0295_
*427 _0296_
*428 _0297_
*429 _0298_
*430 _0299_
*431 _0300_
*432 _0301_
*433 _0302_
*434 _0303_
*435 _0304_
*436 _0305_
*437 _0306_
*438 _0307_
*439 _0308_
*440 _0309_
*441 _0310_
*442 _0311_
*443 _0312_
*444 _0313_
*445 _0314_
*446 _0315_
*447 _0316_
*448 _0317_
*449 _0318_
*450 _0319_
*451 _0320_
*452 _0321_
*453 _0322_
*454 _0323_
*455 _0324_
*456 _0325_
*457 _0326_
*458 _0327_
*459 _0328_
*460 _0329_
*461 _0330_
*462 _0331_
*463 _0332_
*464 _0333_
*465 _0334_
*466 _0335_
*467 _0336_
*468 _0337_
*469 _0338_
*470 _0339_
*471 _0340_
*472 _0341_
*473 _0342_
*474 _0343_
*475 _0344_
*476 _0345_
*477 _0346_
*478 _0347_
*479 _0348_
*480 _0349_
*481 _0350_
*482 _0351_
*483 _0352_
*484 _0353_
*485 _0354_
*486 _0355_
*487 _0356_
*488 _0357_
*489 _0358_
*490 _0359_
*491 _0360_
*492 _0361_
*493 _0362_
*494 _0363_
*495 _0364_
*496 _0365_
*497 _0366_
*498 _0367_
*499 _0368_
*500 _0369_
*501 _0370_
*502 _0371_
*503 _0372_
*504 _0373_
*505 _0374_
*506 _0375_
*507 _0376_
*508 _0377_
*509 _0378_
*510 _0379_
*511 _0380_
*512 _0381_
*513 _0382_
*514 _0383_
*515 _0384_
*516 _0385_
*517 _0386_
*518 _0387_
*519 _0388_
*520 _0389_
*521 _0390_
*522 _0391_
*523 _0392_
*524 _0393_
*525 _0394_
*526 _0395_
*527 _0396_
*528 _0397_
*529 _0398_
*530 _0399_
*531 _0400_
*532 _0401_
*533 _0402_
*534 _0403_
*535 clknet_0_clk
*536 clknet_4_0_0_clk
*537 clknet_4_10_0_clk
*538 clknet_4_11_0_clk
*539 clknet_4_12_0_clk
*540 clknet_4_13_0_clk
*541 clknet_4_14_0_clk
*542 clknet_4_15_0_clk
*543 clknet_4_1_0_clk
*544 clknet_4_2_0_clk
*545 clknet_4_3_0_clk
*546 clknet_4_4_0_clk
*547 clknet_4_5_0_clk
*548 clknet_4_6_0_clk
*549 clknet_4_7_0_clk
*550 clknet_4_8_0_clk
*551 clknet_4_9_0_clk
*552 m_axi_arready
*553 m_axi_arvalid
*554 m_axi_awvalid
*555 m_axi_bready
*556 m_axi_rready
*557 m_axi_wvalid
*558 net1
*559 net10
*560 net11
*561 net12
*562 net13
*563 net14
*564 net15
*565 net156
*566 net157
*567 net158
*568 net159
*569 net16
*570 net160
*571 net161
*572 net162
*573 net163
*574 net164
*575 net165
*576 net166
*577 net167
*578 net168
*579 net169
*580 net17
*581 net170
*582 net171
*583 net172
*584 net173
*585 net174
*586 net175
*587 net176
*588 net177
*589 net178
*590 net179
*591 net18
*592 net180
*593 net181
*594 net182
*595 net183
*596 net184
*597 net185
*598 net186
*599 net187
*600 net188
*601 net189
*602 net19
*603 net190
*604 net191
*605 net192
*606 net193
*607 net194
*608 net195
*609 net196
*610 net197
*611 net198
*612 net199
*613 net2
*614 net20
*615 net200
*616 net201
*617 net202
*618 net203
*619 net204
*620 net205
*621 net206
*622 net207
*623 net208
*624 net209
*625 net21
*626 net210
*627 net211
*628 net212
*629 net213
*630 net214
*631 net215
*632 net216
*633 net217
*634 net218
*635 net219
*636 net22
*637 net220
*638 net221
*639 net222
*640 net223
*641 net224
*642 net225
*643 net226
*644 net227
*645 net228
*646 net229
*647 net23
*648 net230
*649 net231
*650 net232
*651 net233
*652 net234
*653 net235
*654 net236
*655 net237
*656 net238
*657 net239
*658 net24
*659 net25
*660 net26
*661 net27
*662 net28
*663 net29
*664 net3
*665 net30
*666 net31
*667 net32
*668 net33
*669 net34
*670 net35
*671 net36
*672 net37
*673 net38
*674 net39
*675 net4
*676 net40
*677 net41
*678 net42
*679 net43
*680 net44
*681 net45
*682 net46
*683 net47
*684 net48
*685 net49
*686 net5
*687 net50
*688 net51
*689 net52
*690 net53
*691 net54
*692 net55
*693 net56
*694 net57
*695 net58
*696 net59
*697 net6
*698 net60
*699 net61
*700 net62
*701 net63
*702 net7
*703 net8
*704 net9
*705 s0_axi_bvalid
*706 s0_axi_rvalid
*707 s1_axi_arready
*708 s1_axi_awready
*709 s1_axi_bvalid
*710 s1_axi_rvalid
*711 s1_axi_wready
*712 u_axi_bridge\.state\[0\]
*713 u_axi_bridge\.state\[1\]
*714 u_axi_bridge\.state\[2\]
*715 u_axi_decoder\.aw_latched
*716 u_axi_decoder\.rd_state\[1\]
*717 u_axi_decoder\.rd_state\[2\]
*718 u_axi_decoder\.rd_state\[3\]
*719 u_axi_decoder\.rd_state\[4\]
*720 u_axi_decoder\.rd_target_owner\[1\]
*721 u_axi_decoder\.rd_target_owner\[2\]
*722 u_axi_decoder\.s0_arvalid_reg
*723 u_axi_decoder\.s0_awvalid_reg
*724 u_axi_decoder\.s0_wvalid_reg
*725 u_axi_decoder\.s1_arvalid_reg
*726 u_axi_decoder\.s1_awvalid_reg
*727 u_axi_decoder\.s1_wvalid_reg
*728 u_axi_decoder\.unmapped_bvalid_reg
*729 u_axi_decoder\.unmapped_rvalid_reg
*730 u_axi_decoder\.w_latched
*731 u_axi_decoder\.wr_state\[0\]
*732 u_axi_decoder\.wr_state\[1\]
*733 u_axi_decoder\.wr_state\[2\]
*734 u_axi_decoder\.wr_state\[3\]
*735 u_axi_decoder\.wr_state\[4\]
*736 u_axi_decoder\.wr_target_owner\[1\]
*737 u_axi_decoder\.wr_target_owner\[2\]
*738 u_data_memory\.aw_latched
*739 u_data_memory\.w_latched
*740 u_vga_controller\.H_count\[0\]
*741 u_vga_controller\.H_count\[10\]
*742 u_vga_controller\.H_count\[11\]
*743 u_vga_controller\.H_count\[12\]
*744 u_vga_controller\.H_count\[13\]
*745 u_vga_controller\.H_count\[14\]
*746 u_vga_controller\.H_count\[15\]
*747 u_vga_controller\.H_count\[1\]
*748 u_vga_controller\.H_count\[2\]
*749 u_vga_controller\.H_count\[3\]
*750 u_vga_controller\.H_count\[4\]
*751 u_vga_controller\.H_count\[5\]
*752 u_vga_controller\.H_count\[6\]
*753 u_vga_controller\.H_count\[7\]
*754 u_vga_controller\.H_count\[8\]
*755 u_vga_controller\.H_count\[9\]
*756 u_vga_controller\.V_count\[0\]
*757 u_vga_controller\.V_count\[10\]
*758 u_vga_controller\.V_count\[11\]
*759 u_vga_controller\.V_count\[12\]
*760 u_vga_controller\.V_count\[13\]
*761 u_vga_controller\.V_count\[14\]
*762 u_vga_controller\.V_count\[15\]
*763 u_vga_controller\.V_count\[1\]
*764 u_vga_controller\.V_count\[2\]
*765 u_vga_controller\.V_count\[3\]
*766 u_vga_controller\.V_count\[4\]
*767 u_vga_controller\.V_count\[5\]
*768 u_vga_controller\.V_count\[6\]
*769 u_vga_controller\.V_count\[7\]
*770 u_vga_controller\.V_count\[8\]
*771 u_vga_controller\.V_count\[9\]
*772 u_vga_controller\.raw_hsync
*773 u_vga_controller\.raw_vsync
*774 u_vga_registers\.aw_latched
*775 u_vga_registers\.rd_state\[0\]
*776 u_vga_registers\.rd_state\[3\]
*777 u_vga_registers\.w_latched
*778 u_vga_registers\.wr_state\[0\]
*779 u_vga_registers\.wr_state\[1\]
*780 FILLER_0_105
*781 FILLER_0_108
*782 FILLER_0_111
*783 FILLER_0_113
*784 FILLER_0_137
*785 FILLER_0_149
*786 FILLER_0_152
*787 FILLER_0_155
*788 FILLER_0_158
*789 FILLER_0_16
*790 FILLER_0_161
*791 FILLER_0_164
*792 FILLER_0_167
*793 FILLER_0_169
*794 FILLER_0_174
*795 FILLER_0_177
*796 FILLER_0_180
*797 FILLER_0_191
*798 FILLER_0_194
*799 FILLER_0_197
*800 FILLER_0_200
*801 FILLER_0_203
*802 FILLER_0_206
*803 FILLER_0_209
*804 FILLER_0_212
*805 FILLER_0_215
*806 FILLER_0_25
*807 FILLER_0_29
*808 FILLER_0_3
*809 FILLER_0_44
*810 FILLER_0_47
*811 FILLER_0_6
*812 FILLER_0_83
*813 FILLER_0_93
*814 FILLER_0_97
*815 FILLER_10_107
*816 FILLER_10_110
*817 FILLER_10_113
*818 FILLER_10_148
*819 FILLER_10_164
*820 FILLER_10_184
*821 FILLER_10_193
*822 FILLER_10_206
*823 FILLER_10_210
*824 FILLER_10_3
*825 FILLER_10_56
*826 FILLER_10_6
*827 FILLER_10_85
*828 FILLER_11_113
*829 FILLER_11_116
*830 FILLER_11_138
*831 FILLER_11_149
*832 FILLER_11_152
*833 FILLER_11_155
*834 FILLER_11_158
*835 FILLER_11_193
*836 FILLER_11_196
*837 FILLER_11_199
*838 FILLER_11_202
*839 FILLER_11_205
*840 FILLER_11_208
*841 FILLER_11_55
*842 FILLER_12_102
*843 FILLER_12_147
*844 FILLER_12_152
*845 FILLER_12_16
*846 FILLER_12_194
*847 FILLER_12_197
*848 FILLER_12_200
*849 FILLER_12_203
*850 FILLER_12_206
*851 FILLER_12_211
*852 FILLER_12_27
*853 FILLER_12_29
*854 FILLER_12_3
*855 FILLER_12_6
*856 FILLER_12_83
*857 FILLER_12_88
*858 FILLER_13_101
*859 FILLER_13_104
*860 FILLER_13_109
*861 FILLER_13_11
*862 FILLER_13_116
*863 FILLER_13_126
*864 FILLER_13_138
*865 FILLER_13_14
*866 FILLER_13_167
*867 FILLER_13_186
*868 FILLER_13_193
*869 FILLER_13_217
*870 FILLER_13_24
*871 FILLER_13_27
*872 FILLER_13_84
*873 FILLER_13_87
*874 FILLER_13_90
*875 FILLER_13_93
*876 FILLER_14_101
*877 FILLER_14_133
*878 FILLER_14_138
*879 FILLER_14_144
*880 FILLER_14_147
*881 FILLER_14_150
*882 FILLER_14_153
*883 FILLER_14_156
*884 FILLER_14_159
*885 FILLER_14_167
*886 FILLER_14_172
*887 FILLER_14_185
*888 FILLER_14_188
*889 FILLER_14_197
*890 FILLER_14_25
*891 FILLER_14_3
*892 FILLER_14_57
*893 FILLER_14_6
*894 FILLER_14_92
*895 FILLER_14_95
*896 FILLER_14_98
*897 FILLER_15_111
*898 FILLER_15_147
*899 FILLER_15_150
*900 FILLER_15_153
*901 FILLER_15_158
*902 FILLER_15_175
*903 FILLER_15_178
*904 FILLER_15_181
*905 FILLER_15_34
*906 FILLER_15_60
*907 FILLER_15_63
*908 FILLER_15_66
*909 FILLER_16_109
*910 FILLER_16_141
*911 FILLER_16_144
*912 FILLER_16_167
*913 FILLER_16_179
*914 FILLER_16_204
*915 FILLER_16_207
*916 FILLER_16_27
*917 FILLER_16_37
*918 FILLER_16_40
*919 FILLER_16_61
*920 FILLER_16_64
*921 FILLER_16_67
*922 FILLER_16_70
*923 FILLER_16_96
*924 FILLER_17_113
*925 FILLER_17_129
*926 FILLER_17_169
*927 FILLER_17_207
*928 FILLER_17_25
*929 FILLER_17_74
*930 FILLER_17_77
*931 FILLER_17_80
*932 FILLER_17_95
*933 FILLER_17_98
*934 FILLER_18_102
*935 FILLER_18_138
*936 FILLER_18_146
*937 FILLER_18_149
*938 FILLER_18_152
*939 FILLER_18_155
*940 FILLER_18_193
*941 FILLER_18_3
*942 FILLER_18_36
*943 FILLER_18_46
*944 FILLER_18_67
*945 FILLER_18_70
*946 FILLER_18_73
*947 FILLER_18_76
*948 FILLER_18_99
*949 FILLER_19_113
*950 FILLER_19_126
*951 FILLER_19_129
*952 FILLER_19_151
*953 FILLER_19_154
*954 FILLER_19_157
*955 FILLER_19_166
*956 FILLER_19_172
*957 FILLER_19_175
*958 FILLER_19_181
*959 FILLER_19_184
*960 FILLER_19_19
*961 FILLER_19_203
*962 FILLER_19_28
*963 FILLER_19_39
*964 FILLER_19_42
*965 FILLER_19_45
*966 FILLER_19_65
*967 FILLER_19_89
*968 FILLER_1_111
*969 FILLER_1_116
*970 FILLER_1_124
*971 FILLER_1_127
*972 FILLER_1_151
*973 FILLER_1_154
*974 FILLER_1_157
*975 FILLER_1_160
*976 FILLER_1_163
*977 FILLER_1_166
*978 FILLER_1_169
*979 FILLER_1_192
*980 FILLER_1_195
*981 FILLER_1_198
*982 FILLER_1_201
*983 FILLER_1_204
*984 FILLER_1_207
*985 FILLER_1_210
*986 FILLER_1_25
*987 FILLER_1_44
*988 FILLER_20_11
*989 FILLER_20_138
*990 FILLER_20_14
*991 FILLER_20_144
*992 FILLER_20_147
*993 FILLER_20_197
*994 FILLER_20_200
*995 FILLER_20_203
*996 FILLER_20_206
*997 FILLER_20_25
*998 FILLER_20_69
*999 FILLER_20_72
*1000 FILLER_20_75
*1001 FILLER_20_80
*1002 FILLER_20_83
*1003 FILLER_21_103
*1004 FILLER_21_116
*1005 FILLER_21_119
*1006 FILLER_21_122
*1007 FILLER_21_125
*1008 FILLER_21_131
*1009 FILLER_21_134
*1010 FILLER_21_137
*1011 FILLER_21_140
*1012 FILLER_21_16
*1013 FILLER_21_166
*1014 FILLER_21_195
*1015 FILLER_21_198
*1016 FILLER_21_201
*1017 FILLER_21_216
*1018 FILLER_21_3
*1019 FILLER_21_6
*1020 FILLER_21_70
*1021 FILLER_21_74
*1022 FILLER_21_79
*1023 FILLER_21_82
*1024 FILLER_22_109
*1025 FILLER_22_123
*1026 FILLER_22_137
*1027 FILLER_22_24
*1028 FILLER_22_27
*1029 FILLER_22_3
*1030 FILLER_22_53
*1031 FILLER_22_6
*1032 FILLER_23_109
*1033 FILLER_23_137
*1034 FILLER_23_152
*1035 FILLER_23_167
*1036 FILLER_23_204
*1037 FILLER_23_207
*1038 FILLER_23_210
*1039 FILLER_23_25
*1040 FILLER_23_28
*1041 FILLER_23_83
*1042 FILLER_24_108
*1043 FILLER_24_139
*1044 FILLER_24_141
*1045 FILLER_24_195
*1046 FILLER_24_200
*1047 FILLER_24_203
*1048 FILLER_24_206
*1049 FILLER_24_209
*1050 FILLER_24_27
*1051 FILLER_24_3
*1052 FILLER_24_36
*1053 FILLER_24_39
*1054 FILLER_24_49
*1055 FILLER_24_82
*1056 FILLER_24_85
*1057 FILLER_25_11
*1058 FILLER_25_113
*1059 FILLER_25_135
*1060 FILLER_25_158
*1061 FILLER_25_169
*1062 FILLER_25_180
*1063 FILLER_25_203
*1064 FILLER_25_206
*1065 FILLER_25_209
*1066 FILLER_25_49
*1067 FILLER_25_85
*1068 FILLER_26_110
*1069 FILLER_26_172
*1070 FILLER_26_19
*1071 FILLER_26_190
*1072 FILLER_26_195
*1073 FILLER_26_197
*1074 FILLER_26_200
*1075 FILLER_26_203
*1076 FILLER_26_206
*1077 FILLER_26_42
*1078 FILLER_26_65
*1079 FILLER_26_85
*1080 FILLER_26_97
*1081 FILLER_27_11
*1082 FILLER_27_113
*1083 FILLER_27_126
*1084 FILLER_27_139
*1085 FILLER_27_142
*1086 FILLER_27_149
*1087 FILLER_27_152
*1088 FILLER_27_155
*1089 FILLER_27_158
*1090 FILLER_27_169
*1091 FILLER_27_172
*1092 FILLER_27_179
*1093 FILLER_27_194
*1094 FILLER_27_30
*1095 FILLER_27_43
*1096 FILLER_27_57
*1097 FILLER_27_90
*1098 FILLER_28_125
*1099 FILLER_28_128
*1100 FILLER_28_131
*1101 FILLER_28_151
*1102 FILLER_28_154
*1103 FILLER_28_176
*1104 FILLER_28_192
*1105 FILLER_28_195
*1106 FILLER_28_203
*1107 FILLER_28_208
*1108 FILLER_28_3
*1109 FILLER_28_49
*1110 FILLER_28_85
*1111 FILLER_28_88
*1112 FILLER_28_96
*1113 FILLER_28_99
*1114 FILLER_29_106
*1115 FILLER_29_109
*1116 FILLER_29_11
*1117 FILLER_29_14
*1118 FILLER_29_153
*1119 FILLER_29_156
*1120 FILLER_29_176
*1121 FILLER_29_204
*1122 FILLER_29_216
*1123 FILLER_29_23
*1124 FILLER_29_34
*1125 FILLER_29_52
*1126 FILLER_29_57
*1127 FILLER_29_84
*1128 FILLER_29_87
*1129 FILLER_2_124
*1130 FILLER_2_127
*1131 FILLER_2_138
*1132 FILLER_2_144
*1133 FILLER_2_157
*1134 FILLER_2_160
*1135 FILLER_2_163
*1136 FILLER_2_166
*1137 FILLER_2_169
*1138 FILLER_2_172
*1139 FILLER_2_175
*1140 FILLER_2_192
*1141 FILLER_2_195
*1142 FILLER_2_205
*1143 FILLER_2_24
*1144 FILLER_2_27
*1145 FILLER_2_40
*1146 FILLER_2_83
*1147 FILLER_2_85
*1148 FILLER_30_100
*1149 FILLER_30_103
*1150 FILLER_30_112
*1151 FILLER_30_134
*1152 FILLER_30_141
*1153 FILLER_30_144
*1154 FILLER_30_153
*1155 FILLER_30_156
*1156 FILLER_30_180
*1157 FILLER_30_29
*1158 FILLER_30_3
*1159 FILLER_30_65
*1160 FILLER_30_81
*1161 FILLER_31_102
*1162 FILLER_31_131
*1163 FILLER_31_134
*1164 FILLER_31_137
*1165 FILLER_31_153
*1166 FILLER_31_156
*1167 FILLER_31_159
*1168 FILLER_31_162
*1169 FILLER_31_165
*1170 FILLER_31_169
*1171 FILLER_31_172
*1172 FILLER_31_207
*1173 FILLER_31_24
*1174 FILLER_31_3
*1175 FILLER_31_67
*1176 FILLER_31_81
*1177 FILLER_31_99
*1178 FILLER_32_128
*1179 FILLER_32_131
*1180 FILLER_32_148
*1181 FILLER_32_151
*1182 FILLER_32_154
*1183 FILLER_32_157
*1184 FILLER_32_160
*1185 FILLER_32_173
*1186 FILLER_32_176
*1187 FILLER_32_179
*1188 FILLER_32_182
*1189 FILLER_32_185
*1190 FILLER_32_192
*1191 FILLER_32_197
*1192 FILLER_32_206
*1193 FILLER_32_27
*1194 FILLER_32_41
*1195 FILLER_32_88
*1196 FILLER_32_97
*1197 FILLER_33_124
*1198 FILLER_33_127
*1199 FILLER_33_155
*1200 FILLER_33_158
*1201 FILLER_33_167
*1202 FILLER_33_196
*1203 FILLER_33_199
*1204 FILLER_33_202
*1205 FILLER_33_205
*1206 FILLER_33_208
*1207 FILLER_33_211
*1208 FILLER_33_54
*1209 FILLER_33_57
*1210 FILLER_34_130
*1211 FILLER_34_133
*1212 FILLER_34_149
*1213 FILLER_34_183
*1214 FILLER_34_186
*1215 FILLER_34_190
*1216 FILLER_34_193
*1217 FILLER_34_197
*1218 FILLER_34_200
*1219 FILLER_34_203
*1220 FILLER_34_206
*1221 FILLER_34_209
*1222 FILLER_34_24
*1223 FILLER_34_3
*1224 FILLER_34_52
*1225 FILLER_34_82
*1226 FILLER_34_85
*1227 FILLER_34_94
*1228 FILLER_35_101
*1229 FILLER_35_109
*1230 FILLER_35_113
*1231 FILLER_35_116
*1232 FILLER_35_121
*1233 FILLER_35_124
*1234 FILLER_35_127
*1235 FILLER_35_130
*1236 FILLER_35_133
*1237 FILLER_35_156
*1238 FILLER_35_162
*1239 FILLER_35_177
*1240 FILLER_35_180
*1241 FILLER_35_183
*1242 FILLER_35_186
*1243 FILLER_35_189
*1244 FILLER_35_192
*1245 FILLER_35_195
*1246 FILLER_35_198
*1247 FILLER_35_201
*1248 FILLER_35_204
*1249 FILLER_35_207
*1250 FILLER_35_210
*1251 FILLER_35_34
*1252 FILLER_35_42
*1253 FILLER_36_105
*1254 FILLER_36_110
*1255 FILLER_36_113
*1256 FILLER_36_118
*1257 FILLER_36_121
*1258 FILLER_36_126
*1259 FILLER_36_129
*1260 FILLER_36_134
*1261 FILLER_36_141
*1262 FILLER_36_144
*1263 FILLER_36_150
*1264 FILLER_36_153
*1265 FILLER_36_158
*1266 FILLER_36_161
*1267 FILLER_36_166
*1268 FILLER_36_169
*1269 FILLER_36_174
*1270 FILLER_36_177
*1271 FILLER_36_182
*1272 FILLER_36_185
*1273 FILLER_36_190
*1274 FILLER_36_197
*1275 FILLER_36_200
*1276 FILLER_36_206
*1277 FILLER_36_214
*1278 FILLER_36_27
*1279 FILLER_36_51
*1280 FILLER_36_98
*1281 FILLER_3_109
*1282 FILLER_3_131
*1283 FILLER_3_169
*1284 FILLER_3_181
*1285 FILLER_3_192
*1286 FILLER_3_195
*1287 FILLER_3_198
*1288 FILLER_3_201
*1289 FILLER_3_3
*1290 FILLER_3_34
*1291 FILLER_3_65
*1292 FILLER_3_68
*1293 FILLER_3_76
*1294 FILLER_3_79
*1295 FILLER_3_82
*1296 FILLER_3_85
*1297 FILLER_4_100
*1298 FILLER_4_138
*1299 FILLER_4_141
*1300 FILLER_4_158
*1301 FILLER_4_194
*1302 FILLER_4_197
*1303 FILLER_4_200
*1304 FILLER_4_217
*1305 FILLER_4_27
*1306 FILLER_4_37
*1307 FILLER_4_75
*1308 FILLER_4_78
*1309 FILLER_4_81
*1310 FILLER_4_85
*1311 FILLER_5_113
*1312 FILLER_5_116
*1313 FILLER_5_119
*1314 FILLER_5_140
*1315 FILLER_5_143
*1316 FILLER_5_167
*1317 FILLER_5_174
*1318 FILLER_5_177
*1319 FILLER_5_20
*1320 FILLER_5_202
*1321 FILLER_5_209
*1322 FILLER_5_55
*1323 FILLER_5_83
*1324 FILLER_6_114
*1325 FILLER_6_146
*1326 FILLER_6_149
*1327 FILLER_6_15
*1328 FILLER_6_152
*1329 FILLER_6_155
*1330 FILLER_6_158
*1331 FILLER_6_162
*1332 FILLER_6_165
*1333 FILLER_6_168
*1334 FILLER_6_172
*1335 FILLER_6_175
*1336 FILLER_6_178
*1337 FILLER_6_18
*1338 FILLER_6_181
*1339 FILLER_6_189
*1340 FILLER_6_195
*1341 FILLER_6_27
*1342 FILLER_6_29
*1343 FILLER_6_32
*1344 FILLER_6_42
*1345 FILLER_6_6
*1346 FILLER_6_67
*1347 FILLER_6_83
*1348 FILLER_6_85
*1349 FILLER_7_102
*1350 FILLER_7_116
*1351 FILLER_7_147
*1352 FILLER_7_157
*1353 FILLER_7_160
*1354 FILLER_7_190
*1355 FILLER_7_215
*1356 FILLER_7_3
*1357 FILLER_7_6
*1358 FILLER_7_65
*1359 FILLER_7_83
*1360 FILLER_7_86
*1361 FILLER_7_89
*1362 FILLER_7_92
*1363 FILLER_8_11
*1364 FILLER_8_113
*1365 FILLER_8_116
*1366 FILLER_8_141
*1367 FILLER_8_154
*1368 FILLER_8_157
*1369 FILLER_8_203
*1370 FILLER_8_25
*1371 FILLER_8_29
*1372 FILLER_8_67
*1373 FILLER_8_70
*1374 FILLER_8_85
*1375 FILLER_8_96
*1376 FILLER_8_99
*1377 FILLER_9_101
*1378 FILLER_9_104
*1379 FILLER_9_107
*1380 FILLER_9_110
*1381 FILLER_9_113
*1382 FILLER_9_116
*1383 FILLER_9_119
*1384 FILLER_9_122
*1385 FILLER_9_125
*1386 FILLER_9_128
*1387 FILLER_9_145
*1388 FILLER_9_185
*1389 FILLER_9_3
*1390 FILLER_9_31
*1391 FILLER_9_89
*1392 FILLER_9_92
*1393 FILLER_9_95
*1394 FILLER_9_98
*1395 PHY_EDGE_ROW_0_Left_37
*1396 PHY_EDGE_ROW_0_Right_0
*1397 PHY_EDGE_ROW_10_Left_47
*1398 PHY_EDGE_ROW_10_Right_10
*1399 PHY_EDGE_ROW_11_Left_48
*1400 PHY_EDGE_ROW_11_Right_11
*1401 PHY_EDGE_ROW_12_Left_49
*1402 PHY_EDGE_ROW_12_Right_12
*1403 PHY_EDGE_ROW_13_Left_50
*1404 PHY_EDGE_ROW_13_Right_13
*1405 PHY_EDGE_ROW_14_Left_51
*1406 PHY_EDGE_ROW_14_Right_14
*1407 PHY_EDGE_ROW_15_Left_52
*1408 PHY_EDGE_ROW_15_Right_15
*1409 PHY_EDGE_ROW_16_Left_53
*1410 PHY_EDGE_ROW_16_Right_16
*1411 PHY_EDGE_ROW_17_Left_54
*1412 PHY_EDGE_ROW_17_Right_17
*1413 PHY_EDGE_ROW_18_Left_55
*1414 PHY_EDGE_ROW_18_Right_18
*1415 PHY_EDGE_ROW_19_Left_56
*1416 PHY_EDGE_ROW_19_Right_19
*1417 PHY_EDGE_ROW_1_Left_38
*1418 PHY_EDGE_ROW_1_Right_1
*1419 PHY_EDGE_ROW_20_Left_57
*1420 PHY_EDGE_ROW_20_Right_20
*1421 PHY_EDGE_ROW_21_Left_58
*1422 PHY_EDGE_ROW_21_Right_21
*1423 PHY_EDGE_ROW_22_Left_59
*1424 PHY_EDGE_ROW_22_Right_22
*1425 PHY_EDGE_ROW_23_Left_60
*1426 PHY_EDGE_ROW_23_Right_23
*1427 PHY_EDGE_ROW_24_Left_61
*1428 PHY_EDGE_ROW_24_Right_24
*1429 PHY_EDGE_ROW_25_Left_62
*1430 PHY_EDGE_ROW_25_Right_25
*1431 PHY_EDGE_ROW_26_Left_63
*1432 PHY_EDGE_ROW_26_Right_26
*1433 PHY_EDGE_ROW_27_Left_64
*1434 PHY_EDGE_ROW_27_Right_27
*1435 PHY_EDGE_ROW_28_Left_65
*1436 PHY_EDGE_ROW_28_Right_28
*1437 PHY_EDGE_ROW_29_Left_66
*1438 PHY_EDGE_ROW_29_Right_29
*1439 PHY_EDGE_ROW_2_Left_39
*1440 PHY_EDGE_ROW_2_Right_2
*1441 PHY_EDGE_ROW_30_Left_67
*1442 PHY_EDGE_ROW_30_Right_30
*1443 PHY_EDGE_ROW_31_Left_68
*1444 PHY_EDGE_ROW_31_Right_31
*1445 PHY_EDGE_ROW_32_Left_69
*1446 PHY_EDGE_ROW_32_Right_32
*1447 PHY_EDGE_ROW_33_Left_70
*1448 PHY_EDGE_ROW_33_Right_33
*1449 PHY_EDGE_ROW_34_Left_71
*1450 PHY_EDGE_ROW_34_Right_34
*1451 PHY_EDGE_ROW_35_Left_72
*1452 PHY_EDGE_ROW_35_Right_35
*1453 PHY_EDGE_ROW_36_Left_73
*1454 PHY_EDGE_ROW_36_Right_36
*1455 PHY_EDGE_ROW_3_Left_40
*1456 PHY_EDGE_ROW_3_Right_3
*1457 PHY_EDGE_ROW_4_Left_41
*1458 PHY_EDGE_ROW_4_Right_4
*1459 PHY_EDGE_ROW_5_Left_42
*1460 PHY_EDGE_ROW_5_Right_5
*1461 PHY_EDGE_ROW_6_Left_43
*1462 PHY_EDGE_ROW_6_Right_6
*1463 PHY_EDGE_ROW_7_Left_44
*1464 PHY_EDGE_ROW_7_Right_7
*1465 PHY_EDGE_ROW_8_Left_45
*1466 PHY_EDGE_ROW_8_Right_8
*1467 PHY_EDGE_ROW_9_Left_46
*1468 PHY_EDGE_ROW_9_Right_9
*1469 TAP_TAPCELL_ROW_0_74
*1470 TAP_TAPCELL_ROW_0_75
*1471 TAP_TAPCELL_ROW_0_76
*1472 TAP_TAPCELL_ROW_0_77
*1473 TAP_TAPCELL_ROW_0_78
*1474 TAP_TAPCELL_ROW_0_79
*1475 TAP_TAPCELL_ROW_0_80
*1476 TAP_TAPCELL_ROW_10_112
*1477 TAP_TAPCELL_ROW_10_113
*1478 TAP_TAPCELL_ROW_10_114
*1479 TAP_TAPCELL_ROW_10_115
*1480 TAP_TAPCELL_ROW_11_116
*1481 TAP_TAPCELL_ROW_11_117
*1482 TAP_TAPCELL_ROW_11_118
*1483 TAP_TAPCELL_ROW_12_119
*1484 TAP_TAPCELL_ROW_12_120
*1485 TAP_TAPCELL_ROW_12_121
*1486 TAP_TAPCELL_ROW_12_122
*1487 TAP_TAPCELL_ROW_13_123
*1488 TAP_TAPCELL_ROW_13_124
*1489 TAP_TAPCELL_ROW_13_125
*1490 TAP_TAPCELL_ROW_14_126
*1491 TAP_TAPCELL_ROW_14_127
*1492 TAP_TAPCELL_ROW_14_128
*1493 TAP_TAPCELL_ROW_14_129
*1494 TAP_TAPCELL_ROW_15_130
*1495 TAP_TAPCELL_ROW_15_131
*1496 TAP_TAPCELL_ROW_15_132
*1497 TAP_TAPCELL_ROW_16_133
*1498 TAP_TAPCELL_ROW_16_134
*1499 TAP_TAPCELL_ROW_16_135
*1500 TAP_TAPCELL_ROW_16_136
*1501 TAP_TAPCELL_ROW_17_137
*1502 TAP_TAPCELL_ROW_17_138
*1503 TAP_TAPCELL_ROW_17_139
*1504 TAP_TAPCELL_ROW_18_140
*1505 TAP_TAPCELL_ROW_18_141
*1506 TAP_TAPCELL_ROW_18_142
*1507 TAP_TAPCELL_ROW_18_143
*1508 TAP_TAPCELL_ROW_19_144
*1509 TAP_TAPCELL_ROW_19_145
*1510 TAP_TAPCELL_ROW_19_146
*1511 TAP_TAPCELL_ROW_1_81
*1512 TAP_TAPCELL_ROW_1_82
*1513 TAP_TAPCELL_ROW_1_83
*1514 TAP_TAPCELL_ROW_20_147
*1515 TAP_TAPCELL_ROW_20_148
*1516 TAP_TAPCELL_ROW_20_149
*1517 TAP_TAPCELL_ROW_20_150
*1518 TAP_TAPCELL_ROW_21_151
*1519 TAP_TAPCELL_ROW_21_152
*1520 TAP_TAPCELL_ROW_21_153
*1521 TAP_TAPCELL_ROW_22_154
*1522 TAP_TAPCELL_ROW_22_155
*1523 TAP_TAPCELL_ROW_22_156
*1524 TAP_TAPCELL_ROW_22_157
*1525 TAP_TAPCELL_ROW_23_158
*1526 TAP_TAPCELL_ROW_23_159
*1527 TAP_TAPCELL_ROW_23_160
*1528 TAP_TAPCELL_ROW_24_161
*1529 TAP_TAPCELL_ROW_24_162
*1530 TAP_TAPCELL_ROW_24_163
*1531 TAP_TAPCELL_ROW_24_164
*1532 TAP_TAPCELL_ROW_25_165
*1533 TAP_TAPCELL_ROW_25_166
*1534 TAP_TAPCELL_ROW_25_167
*1535 TAP_TAPCELL_ROW_26_168
*1536 TAP_TAPCELL_ROW_26_169
*1537 TAP_TAPCELL_ROW_26_170
*1538 TAP_TAPCELL_ROW_26_171
*1539 TAP_TAPCELL_ROW_27_172
*1540 TAP_TAPCELL_ROW_27_173
*1541 TAP_TAPCELL_ROW_27_174
*1542 TAP_TAPCELL_ROW_28_175
*1543 TAP_TAPCELL_ROW_28_176
*1544 TAP_TAPCELL_ROW_28_177
*1545 TAP_TAPCELL_ROW_28_178
*1546 TAP_TAPCELL_ROW_29_179
*1547 TAP_TAPCELL_ROW_29_180
*1548 TAP_TAPCELL_ROW_29_181
*1549 TAP_TAPCELL_ROW_2_84
*1550 TAP_TAPCELL_ROW_2_85
*1551 TAP_TAPCELL_ROW_2_86
*1552 TAP_TAPCELL_ROW_2_87
*1553 TAP_TAPCELL_ROW_30_182
*1554 TAP_TAPCELL_ROW_30_183
*1555 TAP_TAPCELL_ROW_30_184
*1556 TAP_TAPCELL_ROW_30_185
*1557 TAP_TAPCELL_ROW_31_186
*1558 TAP_TAPCELL_ROW_31_187
*1559 TAP_TAPCELL_ROW_31_188
*1560 TAP_TAPCELL_ROW_32_189
*1561 TAP_TAPCELL_ROW_32_190
*1562 TAP_TAPCELL_ROW_32_191
*1563 TAP_TAPCELL_ROW_32_192
*1564 TAP_TAPCELL_ROW_33_193
*1565 TAP_TAPCELL_ROW_33_194
*1566 TAP_TAPCELL_ROW_33_195
*1567 TAP_TAPCELL_ROW_34_196
*1568 TAP_TAPCELL_ROW_34_197
*1569 TAP_TAPCELL_ROW_34_198
*1570 TAP_TAPCELL_ROW_34_199
*1571 TAP_TAPCELL_ROW_35_200
*1572 TAP_TAPCELL_ROW_35_201
*1573 TAP_TAPCELL_ROW_35_202
*1574 TAP_TAPCELL_ROW_36_203
*1575 TAP_TAPCELL_ROW_36_204
*1576 TAP_TAPCELL_ROW_36_205
*1577 TAP_TAPCELL_ROW_36_206
*1578 TAP_TAPCELL_ROW_36_207
*1579 TAP_TAPCELL_ROW_36_208
*1580 TAP_TAPCELL_ROW_36_209
*1581 TAP_TAPCELL_ROW_3_88
*1582 TAP_TAPCELL_ROW_3_89
*1583 TAP_TAPCELL_ROW_3_90
*1584 TAP_TAPCELL_ROW_4_91
*1585 TAP_TAPCELL_ROW_4_92
*1586 TAP_TAPCELL_ROW_4_93
*1587 TAP_TAPCELL_ROW_4_94
*1588 TAP_TAPCELL_ROW_5_95
*1589 TAP_TAPCELL_ROW_5_96
*1590 TAP_TAPCELL_ROW_5_97
*1591 TAP_TAPCELL_ROW_6_100
*1592 TAP_TAPCELL_ROW_6_101
*1593 TAP_TAPCELL_ROW_6_98
*1594 TAP_TAPCELL_ROW_6_99
*1595 TAP_TAPCELL_ROW_7_102
*1596 TAP_TAPCELL_ROW_7_103
*1597 TAP_TAPCELL_ROW_7_104
*1598 TAP_TAPCELL_ROW_8_105
*1599 TAP_TAPCELL_ROW_8_106
*1600 TAP_TAPCELL_ROW_8_107
*1601 TAP_TAPCELL_ROW_8_108
*1602 TAP_TAPCELL_ROW_9_109
*1603 TAP_TAPCELL_ROW_9_110
*1604 TAP_TAPCELL_ROW_9_111
*1605 _0404_
*1606 _0405_
*1607 _0406_
*1608 _0407_
*1609 _0408_
*1610 _0409_
*1611 _0410_
*1612 _0411_
*1613 _0412_
*1614 _0413_
*1615 _0414_
*1616 _0415_
*1617 _0416_
*1618 _0417_
*1619 _0418_
*1620 _0419_
*1621 _0420_
*1622 _0421_
*1623 _0422_
*1624 _0423_
*1625 _0424_
*1626 _0425_
*1627 _0426_
*1628 _0427_
*1629 _0428_
*1630 _0429_
*1631 _0430_
*1632 _0431_
*1633 _0432_
*1634 _0433_
*1635 _0434_
*1636 _0435_
*1637 _0436_
*1638 _0437_
*1639 _0438_
*1640 _0439_
*1641 _0440_
*1642 _0441_
*1643 _0442_
*1644 _0443_
*1645 _0444_
*1646 _0445_
*1647 _0446_
*1648 _0447_
*1649 _0448_
*1650 _0449_
*1651 _0450_
*1652 _0451_
*1653 _0452_
*1654 _0453_
*1655 _0454_
*1656 _0455_
*1657 _0456_
*1658 _0457_
*1659 _0458_
*1660 _0459_
*1661 _0460_
*1662 _0461_
*1663 _0462_
*1664 _0463_
*1665 _0464_
*1666 _0465_
*1667 _0466_
*1668 _0467_
*1669 _0468_
*1670 _0469_
*1671 _0470_
*1672 _0471_
*1673 _0472_
*1674 _0473_
*1675 _0474_
*1676 _0475_
*1677 _0476_
*1678 _0477_
*1679 _0478_
*1680 _0479_
*1681 _0480_
*1682 _0481_
*1683 _0482_
*1684 _0483_
*1685 _0484_
*1686 _0485_
*1687 _0486_
*1688 _0487_
*1689 _0488_
*1690 _0489_
*1691 _0490_
*1692 _0491_
*1693 _0492_
*1694 _0493_
*1695 _0494_
*1696 _0495_
*1697 _0496_
*1698 _0497_
*1699 _0498_
*1700 _0499_
*1701 _0500_
*1702 _0501_
*1703 _0502_
*1704 _0503_
*1705 _0504_
*1706 _0505_
*1707 _0506_
*1708 _0507_
*1709 _0508_
*1710 _0509_
*1711 _0510_
*1712 _0511_
*1713 _0512_
*1714 _0513_
*1715 _0514_
*1716 _0515_
*1717 _0516_
*1718 _0517_
*1719 _0518_
*1720 _0519_
*1721 _0520_
*1722 _0521_
*1723 _0522_
*1724 _0523_
*1725 _0524_
*1726 _0525_
*1727 _0526_
*1728 _0527_
*1729 _0528_
*1730 _0529_
*1731 _0530_
*1732 _0531_
*1733 _0532_
*1734 _0533_
*1735 _0534_
*1736 _0535_
*1737 _0536_
*1738 _0537_
*1739 _0538_
*1740 _0539_
*1741 _0540_
*1742 _0541_
*1743 _0542_
*1744 _0543_
*1745 _0544_
*1746 _0545_
*1747 _0546_
*1748 _0547_
*1749 _0548_
*1750 _0549_
*1751 _0550_
*1752 _0551_
*1753 _0552_
*1754 _0553_
*1755 _0554_
*1756 _0555_
*1757 _0556_
*1758 _0557_
*1759 _0558_
*1760 _0559_
*1761 _0560_
*1762 _0561_
*1763 _0562_
*1764 _0563_
*1765 _0564_
*1766 _0565_
*1767 _0566_
*1768 _0567_
*1769 _0568_
*1770 _0569_
*1771 _0570_
*1772 _0571_
*1773 _0572_
*1774 _0573_
*1775 _0574_
*1776 _0575_
*1777 _0576_
*1778 _0577_
*1779 _0578_
*1780 _0579_
*1781 _0580_
*1782 _0581_
*1783 _0582_
*1784 _0583_
*1785 _0584_
*1786 _0585_
*1787 _0586_
*1788 _0587_
*1789 _0588_
*1790 _0589_
*1791 _0590_
*1792 _0591_
*1793 _0592_
*1794 _0593_
*1795 _0594_
*1796 _0595_
*1797 _0596_
*1798 _0597_
*1799 _0598_
*1800 _0599_
*1801 _0600_
*1802 _0601_
*1803 _0602_
*1804 _0603_
*1805 _0604_
*1806 _0605_
*1807 _0606_
*1808 _0607_
*1809 _0608_
*1810 _0609_
*1811 _0610_
*1812 _0611_
*1813 _0612_
*1814 _0613_
*1815 _0614_
*1816 _0615_
*1817 _0616_
*1818 _0617_
*1819 _0618_
*1820 _0619_
*1821 _0620_
*1822 _0621_
*1823 _0622_
*1824 _0623_
*1825 _0624_
*1826 _0625_
*1827 _0626_
*1828 _0627_
*1829 _0628_
*1830 _0629_
*1831 _0630_
*1832 _0631_
*1833 _0632_
*1834 _0633_
*1835 _0634_
*1836 _0635_
*1837 _0636_
*1838 _0637_
*1839 _0638_
*1840 _0639_
*1841 _0640_
*1842 _0641_
*1843 _0642_
*1844 _0643_
*1845 _0644_
*1846 _0645_
*1847 _0646_
*1848 _0647_
*1849 _0648_
*1850 _0649_
*1851 _0650_
*1852 _0651_
*1853 _0652_
*1854 _0653_
*1855 _0654_
*1856 _0655_
*1857 _0656_
*1858 _0657_
*1859 _0658_
*1860 _0659_
*1861 _0660_
*1862 _0661_
*1863 _0662_
*1864 _0663_
*1865 _0664_
*1866 _0665_
*1867 _0666_
*1868 _0667_
*1869 _0668_
*1870 _0669_
*1871 _0670_
*1872 _0671_
*1873 _0672_
*1874 _0673_
*1875 _0674_
*1876 _0675_
*1877 _0676_
*1878 _0677_
*1879 _0678_
*1880 _0679_
*1881 _0680_
*1882 _0681_
*1883 _0682_
*1884 _0683_
*1885 _0684_
*1886 _0685_
*1887 _0686_
*1888 _0687_
*1889 _0688_
*1890 _0689_
*1891 _0690_
*1892 _0691_
*1893 _0692_
*1894 _0693_
*1895 _0694_
*1896 _0695_
*1897 _0696_
*1898 _0697_
*1899 _0698_
*1900 _0699_
*1901 _0700_
*1902 _0701_
*1903 _0702_
*1904 _0703_
*1905 _0704_
*1906 _0705_
*1907 _0706_
*1908 _0707_
*1909 _0708_
*1910 _0709_
*1911 _0710_
*1912 _0711_
*1913 _0712_
*1914 _0713_
*1915 _0714_
*1916 _0715_
*1917 _0716_
*1918 _0717_
*1919 _0718_
*1920 _0719_
*1921 _0720_
*1922 _0721_
*1923 _0722_
*1924 _0723_
*1925 _0724_
*1926 _0725_
*1927 _0726_
*1928 _0727_
*1929 _0728_
*1930 _0729_
*1931 _0730_
*1932 _0731_
*1933 _0732_
*1934 _0733_
*1935 _0734_
*1936 _0735_
*1937 _0736_
*1938 _0737_
*1939 _0738_
*1940 _0739_
*1941 _0740_
*1942 _0741_
*1943 _0742_
*1944 _0743_
*1945 _0744_
*1946 _0745_
*1947 _0746_
*1948 _0747_
*1949 _0748_
*1950 _0749_
*1951 _0750_
*1952 _0751_
*1953 _0752_
*1954 _0753_
*1955 _0754_
*1956 _0755_
*1957 _0756_
*1958 _0757_
*1959 _0758_
*1960 _0759_
*1961 _0760_
*1962 _0761_
*1963 _0762_
*1964 _0763_
*1965 _0764_
*1966 _0765_
*1967 _0766_
*1968 _0767_
*1969 _0768_
*1970 _0769_
*1971 _0770_
*1972 _0771_
*1973 _0772_
*1974 _0773_
*1975 _0774_
*1976 _0775_
*1977 _0776_
*1978 _0777_
*1979 _0778_
*1980 _0779_
*1981 _0780_
*1982 _0781_
*1983 _0782_
*1984 _0783_
*1985 _0784_
*1986 _0785_
*1987 _0786_
*1988 _0787_
*1989 _0788_
*1990 _0789_
*1991 _0790_
*1992 _0791_
*1993 _0792_
*1994 _0793_
*1995 _0794_
*1996 _0795_
*1997 _0796_
*1998 _0797_
*1999 _0798_
*2000 _0799_
*2001 _0800_
*2002 _0801_
*2003 _0802_
*2004 _0803_
*2005 _0804_
*2006 _0805_
*2007 _0806_
*2008 _0807_
*2009 _0808_
*2010 _0809_
*2011 _0810_
*2012 _0811_
*2013 _0812_
*2014 _0813_
*2015 _0814_
*2016 _0815_
*2017 _0816_
*2018 _0817_
*2019 _0818_
*2020 _0819_
*2021 _0820_
*2022 _0821_
*2023 _0822_
*2024 _0823_
*2025 _0824_
*2026 _0825_
*2027 _0826_
*2028 _0827_
*2029 _0828_
*2030 _0829_
*2031 _0830_
*2032 _0831_
*2033 _0832_
*2034 _0833_
*2035 _0834_
*2036 _0835_
*2037 _0836_
*2038 _0837_
*2039 _0838_
*2040 _0839_
*2041 _0840_
*2042 _0841_
*2043 _0842_
*2044 _0843_
*2045 _0844_
*2046 _0845_
*2047 _0846_
*2048 _0847_
*2049 _0848_
*2050 _0849_
*2051 _0850_
*2052 _0851_
*2053 _0852_
*2054 _0853_
*2055 _0854_
*2056 _0855_
*2057 _0856_
*2058 _0857_
*2059 _0858_
*2060 _0859_
*2061 _0860_
*2062 _0861_
*2063 _0862_
*2064 _0863_
*2065 _0864_
*2066 _0865_
*2067 _0866_
*2068 _0867_
*2069 _0868_
*2070 _0869_
*2071 _0870_
*2072 _0871_
*2073 _0872_
*2074 _0873_
*2075 _0874_
*2076 _0875_
*2077 _0876_
*2078 _0877_
*2079 _0878_
*2080 _0879_
*2081 _0880_
*2082 _0881_
*2083 _0882_
*2084 _0883_
*2085 _0884_
*2086 _0885_
*2087 _0886_
*2088 _0887_
*2089 _0888_
*2090 _0889_
*2091 _0890_
*2092 _0891_
*2093 _0892_
*2094 _0893_
*2095 _0894_
*2096 _0895_
*2097 _0896_
*2098 _0897_
*2099 _0898_
*2100 _0899_
*2101 _0900_
*2102 _0901_
*2103 _0902_
*2104 _0903_
*2105 _0904_
*2106 _0905_
*2107 _0906_
*2108 _0907_
*2109 _0908_
*2110 _0909_
*2111 _0910_
*2112 _0911_
*2113 _0912_
*2114 _0913_
*2115 _0914_
*2116 _0915_
*2117 _0916_
*2118 _0917_
*2119 _0918_
*2120 _0919_
*2121 _0920_
*2122 _0921_
*2123 clkbuf_0_clk
*2124 clkbuf_4_0_0_clk
*2125 clkbuf_4_10_0_clk
*2126 clkbuf_4_11_0_clk
*2127 clkbuf_4_12_0_clk
*2128 clkbuf_4_13_0_clk
*2129 clkbuf_4_14_0_clk
*2130 clkbuf_4_15_0_clk
*2131 clkbuf_4_1_0_clk
*2132 clkbuf_4_2_0_clk
*2133 clkbuf_4_3_0_clk
*2134 clkbuf_4_4_0_clk
*2135 clkbuf_4_5_0_clk
*2136 clkbuf_4_6_0_clk
*2137 clkbuf_4_7_0_clk
*2138 clkbuf_4_8_0_clk
*2139 clkbuf_4_9_0_clk
*2140 clkload0
*2141 clkload1
*2142 clkload10
*2143 clkload11
*2144 clkload12
*2145 clkload13
*2146 clkload2
*2147 clkload3
*2148 clkload4
*2149 clkload5
*2150 clkload6
*2151 clkload7
*2152 clkload8
*2153 clkload9
*2154 fanout35
*2155 fanout41
*2156 fanout43
*2157 fanout44
*2158 fanout46
*2159 fanout48
*2160 fanout50
*2161 fanout51
*2162 fanout52
*2163 fanout54
*2164 fanout56
*2165 fanout58
*2166 fanout60
*2167 fanout62
*2168 fanout63
*2169 hold156
*2170 hold157
*2171 hold158
*2172 hold159
*2173 hold160
*2174 hold161
*2175 hold162
*2176 hold163
*2177 hold164
*2178 hold165
*2179 hold166
*2180 hold167
*2181 hold168
*2182 hold169
*2183 hold170
*2184 hold171
*2185 hold172
*2186 hold173
*2187 hold174
*2188 hold175
*2189 hold176
*2190 hold177
*2191 hold178
*2192 hold179
*2193 hold180
*2194 hold181
*2195 hold182
*2196 hold183
*2197 hold184
*2198 hold185
*2199 hold186
*2200 hold187
*2201 hold188
*2202 hold189
*2203 hold190
*2204 hold191
*2205 hold192
*2206 hold193
*2207 hold194
*2208 hold195
*2209 hold196
*2210 hold197
*2211 hold198
*2212 hold199
*2213 hold200
*2214 hold201
*2215 hold202
*2216 hold203
*2217 hold204
*2218 hold205
*2219 hold206
*2220 hold207
*2221 hold208
*2222 hold209
*2223 hold210
*2224 hold211
*2225 hold212
*2226 hold213
*2227 hold214
*2228 hold215
*2229 hold216
*2230 hold217
*2231 hold218
*2232 hold219
*2233 hold220
*2234 hold221
*2235 hold222
*2236 hold223
*2237 hold224
*2238 hold225
*2239 hold226
*2240 hold227
*2241 hold228
*2242 hold229
*2243 hold230
*2244 hold231
*2245 hold232
*2246 hold233
*2247 hold234
*2248 hold235
*2249 hold236
*2250 hold237
*2251 hold238
*2252 hold239
*2253 input1
*2254 load_slew42
*2255 load_slew45
*2256 load_slew47
*2257 load_slew49
*2258 load_slew53
*2259 load_slew55
*2260 load_slew57
*2261 load_slew59
*2262 load_slew61
*2263 max_cap36
*2264 max_cap37
*2265 max_cap38
*2266 max_cap40
*2267 output10
*2268 output11
*2269 output12
*2270 output13
*2271 output14
*2272 output15
*2273 output16
*2274 output17
*2275 output18
*2276 output19
*2277 output2
*2278 output20
*2279 output21
*2280 output22
*2281 output23
*2282 output24
*2283 output25
*2284 output26
*2285 output27
*2286 output28
*2287 output29
*2288 output3
*2289 output30
*2290 output31
*2291 output32
*2292 output33
*2293 output34
*2294 output4
*2295 output5
*2296 output6
*2297 output7
*2298 output8
*2299 output9
*2300 soc_top
*2301 soc_top_100
*2302 soc_top_101
*2303 soc_top_102
*2304 soc_top_103
*2305 soc_top_104
*2306 soc_top_105
*2307 soc_top_106
*2308 soc_top_107
*2309 soc_top_108
*2310 soc_top_109
*2311 soc_top_110
*2312 soc_top_111
*2313 soc_top_112
*2314 soc_top_113
*2315 soc_top_114
*2316 soc_top_115
*2317 soc_top_116
*2318 soc_top_117
*2319 soc_top_118
*2320 soc_top_119
*2321 soc_top_120
*2322 soc_top_121
*2323 soc_top_122
*2324 soc_top_123
*2325 soc_top_124
*2326 soc_top_125
*2327 soc_top_126
*2328 soc_top_127
*2329 soc_top_128
*2330 soc_top_129
*2331 soc_top_130
*2332 soc_top_131
*2333 soc_top_132
*2334 soc_top_133
*2335 soc_top_134
*2336 soc_top_135
*2337 soc_top_136
*2338 soc_top_137
*2339 soc_top_138
*2340 soc_top_139
*2341 soc_top_140
*2342 soc_top_141
*2343 soc_top_142
*2344 soc_top_143
*2345 soc_top_144
*2346 soc_top_145
*2347 soc_top_146
*2348 soc_top_147
*2349 soc_top_148
*2350 soc_top_149
*2351 soc_top_150
*2352 soc_top_151
*2353 soc_top_152
*2354 soc_top_153
*2355 soc_top_154
*2356 soc_top_155
*2357 soc_top_64
*2358 soc_top_65
*2359 soc_top_66
*2360 soc_top_67
*2361 soc_top_68
*2362 soc_top_69
*2363 soc_top_70
*2364 soc_top_71
*2365 soc_top_72
*2366 soc_top_73
*2367 soc_top_74
*2368 soc_top_75
*2369 soc_top_76
*2370 soc_top_77
*2371 soc_top_78
*2372 soc_top_79
*2373 soc_top_80
*2374 soc_top_81
*2375 soc_top_82
*2376 soc_top_83
*2377 soc_top_84
*2378 soc_top_85
*2379 soc_top_86
*2380 soc_top_87
*2381 soc_top_88
*2382 soc_top_89
*2383 soc_top_90
*2384 soc_top_91
*2385 soc_top_92
*2386 soc_top_93
*2387 soc_top_94
*2388 soc_top_95
*2389 soc_top_96
*2390 soc_top_97
*2391 soc_top_98
*2392 soc_top_99
*2393 wire39

*PORTS
Hsync O
Vsync O
blue[0] O
blue[1] O
blue[2] O
blue[3] O
blue[4] O
blue[5] O
blue[6] O
blue[7] O
clk I
cpu_stall O
display_enable O
green[0] O
green[1] O
green[2] O
green[3] O
green[4] O
green[5] O
green[6] O
green[7] O
mem_addr[0] O
mem_addr[10] O
mem_addr[11] O
mem_addr[12] O
mem_addr[13] O
mem_addr[14] O
mem_addr[15] O
mem_addr[16] O
mem_addr[17] O
mem_addr[18] O
mem_addr[19] O
mem_addr[1] O
mem_addr[20] O
mem_addr[21] O
mem_addr[22] O
mem_addr[23] O
mem_addr[24] O
mem_addr[25] O
mem_addr[26] O
mem_addr[27] O
mem_addr[28] O
mem_addr[29] O
mem_addr[2] O
mem_addr[30] O
mem_addr[31] O
mem_addr[3] O
mem_addr[4] O
mem_addr[5] O
mem_addr[6] O
mem_addr[7] O
mem_addr[8] O
mem_addr[9] O
mem_read O
mem_wdata[0] O
mem_wdata[10] O
mem_wdata[11] O
mem_wdata[12] O
mem_wdata[13] O
mem_wdata[14] O
mem_wdata[15] O
mem_wdata[16] O
mem_wdata[17] O
mem_wdata[18] O
mem_wdata[19] O
mem_wdata[1] O
mem_wdata[20] O
mem_wdata[21] O
mem_wdata[22] O
mem_wdata[23] O
mem_wdata[24] O
mem_wdata[25] O
mem_wdata[26] O
mem_wdata[27] O
mem_wdata[28] O
mem_wdata[29] O
mem_wdata[2] O
mem_wdata[30] O
mem_wdata[31] O
mem_wdata[3] O
mem_wdata[4] O
mem_wdata[5] O
mem_wdata[6] O
mem_wdata[7] O
mem_wdata[8] O
mem_wdata[9] O
mem_write O
pcRegister[0] O
pcRegister[10] O
pcRegister[11] O
pcRegister[12] O
pcRegister[13] O
pcRegister[14] O
pcRegister[15] O
pcRegister[16] O
pcRegister[17] O
pcRegister[18] O
pcRegister[19] O
pcRegister[1] O
pcRegister[20] O
pcRegister[21] O
pcRegister[22] O
pcRegister[23] O
pcRegister[24] O
pcRegister[25] O
pcRegister[26] O
pcRegister[27] O
pcRegister[28] O
pcRegister[29] O
pcRegister[2] O
pcRegister[30] O
pcRegister[31] O
pcRegister[3] O
pcRegister[4] O
pcRegister[5] O
pcRegister[6] O
pcRegister[7] O
pcRegister[8] O
pcRegister[9] O
red[0] O
red[1] O
red[2] O
red[3] O
red[4] O
red[5] O
red[6] O
red[7] O
reset I

*D_NET *1 0.00342191
*CONN
*P Hsync O
*I *2277:X O *D sky130_fd_sc_hd__clkdlybuf4s25_1
*CAP
1 Hsync 0.000536977
2 *2277:X 0.000304833
3 *1:8 0.00084181
4 Hsync Vsync 0.000994782
5 *1:8 *2122:SET_B 0.000100486
6 *1:8 *4:8 5.58003e-05
7 *1:8 *526:14 5.77433e-05
8 *1:8 *658:14 2.93335e-05
9 *1:8 *664:8 0.000500144
*RES
1 *2277:X *1:8 45.7679 
2 *1:8 Hsync 30.1566 
*END

*D_NET *4 0.0023639
*CONN
*P Vsync O
*I *2288:X O *D sky130_fd_sc_hd__clkdlybuf4s25_1
*CAP
1 Vsync 0.00053114
2 *2288:X 0.000109615
3 *4:8 0.000640754
4 *4:8 *658:14 3.18142e-05
5 Hsync Vsync 0.000994782
6 *1:8 *4:8 5.58003e-05
*RES
1 *2288:X *4:8 39.5743 
2 *4:8 Vsync 29.4406 
*END

*D_NET *5 0.00192084
*CONN
*P blue[0] O
*I *2300:LO O *D sky130_fd_sc_hd__conb_1
*CAP
1 blue[0] 0.000840791
2 *2300:LO 7.62943e-05
3 *5:12 0.000917085
4 blue[0] blue[1] 8.66653e-05
*RES
1 *2300:LO *5:12 46.42 
2 *5:12 blue[0] 10.2969 
*END

*D_NET *6 0.00179649
*CONN
*P blue[1] O
*I *2357:LO O *D sky130_fd_sc_hd__conb_1
*CAP
1 blue[1] 0.000732856
2 *2357:LO 7.87241e-05
3 *6:12 0.00081158
4 blue[1] blue[2] 8.66653e-05
5 blue[0] blue[1] 8.66653e-05
*RES
1 *2357:LO *6:12 46.42 
2 *6:12 blue[1] 10.2969 
*END

*D_NET *7 0.00179649
*CONN
*P blue[2] O
*I *2358:LO O *D sky130_fd_sc_hd__conb_1
*CAP
1 blue[2] 0.000732856
2 *2358:LO 7.87241e-05
3 *7:12 0.00081158
4 blue[2] blue[3] 8.66653e-05
5 blue[1] blue[2] 8.66653e-05
*RES
1 *2358:LO *7:12 46.42 
2 *7:12 blue[2] 10.2969 
*END

*D_NET *8 0.00179649
*CONN
*P blue[3] O
*I *2359:LO O *D sky130_fd_sc_hd__conb_1
*CAP
1 blue[3] 0.000732856
2 *2359:LO 7.87241e-05
3 *8:12 0.00081158
4 blue[3] blue[4] 8.66653e-05
5 blue[2] blue[3] 8.66653e-05
*RES
1 *2359:LO *8:12 46.42 
2 *8:12 blue[3] 10.2969 
*END

*D_NET *9 0.00179649
*CONN
*P blue[4] O
*I *2360:LO O *D sky130_fd_sc_hd__conb_1
*CAP
1 blue[4] 0.000732856
2 *2360:LO 7.87241e-05
3 *9:12 0.00081158
4 blue[4] blue[5] 8.66653e-05
5 blue[3] blue[4] 8.66653e-05
*RES
1 *2360:LO *9:12 46.42 
2 *9:12 blue[4] 10.2969 
*END

*D_NET *10 0.00179615
*CONN
*P blue[5] O
*I *2361:LO O *D sky130_fd_sc_hd__conb_1
*CAP
1 blue[5] 0.000736498
2 *2361:LO 7.87241e-05
3 *10:12 0.000815222
4 blue[5] blue[6] 7.90401e-05
5 blue[4] blue[5] 8.66653e-05
*RES
1 *2361:LO *10:12 46.42 
2 *10:12 blue[5] 10.2969 
*END

*D_NET *11 0.00223833
*CONN
*P blue[6] O
*I *2362:LO O *D sky130_fd_sc_hd__conb_1
*CAP
1 blue[6] 0.000916168
2 *2362:LO 0.000160722
3 *11:12 0.00107689
4 blue[6] blue[7] 5.50931e-06
5 blue[5] blue[6] 7.90401e-05
*RES
1 *2362:LO *11:12 47.8286 
2 *11:12 blue[6] 10.0431 
*END

*D_NET *12 0.00262005
*CONN
*P blue[7] O
*I *2363:LO O *D sky130_fd_sc_hd__conb_1
*CAP
1 blue[7] 0.00123142
2 *2363:LO 7.58472e-05
3 *12:12 0.00130727
4 blue[6] blue[7] 5.50931e-06
*RES
1 *2363:LO *12:12 46.42 
2 *12:12 blue[7] 10.2969 
*END

*D_NET *13 0.0130437
*CONN
*P clk I
*I *2123:A I *D sky130_fd_sc_hd__clkbuf_16
*CAP
1 clk 0.00231758
2 *2123:A 0.000112175
3 *13:14 0.000864216
4 *13:10 0.00304004
5 *13:8 0.00460558
6 *2123:A *341:45 4.42168e-05
7 *13:8 mem_addr[0] 0.000116294
8 *13:8 mem_addr[2] 0
9 *13:8 *130:13 8.65161e-05
10 *13:10 *1612:A 0
11 *13:10 *1739:B 9.84698e-05
12 *13:10 *2096:CLK 0
13 *13:10 *182:14 0.000123764
14 *13:10 *209:8 3.75168e-05
15 *13:10 *221:10 0.000136691
16 *13:10 *289:8 0.000190827
17 *13:10 *290:8 4.12864e-05
18 *13:10 *327:10 0.000204678
19 *13:10 *423:26 0.000230414
20 *13:10 *535:154 0
21 *13:10 *552:29 0.000152543
22 *13:10 *552:44 0
23 *13:10 *553:8 0
24 *13:10 *556:41 0
25 *13:10 *692:59 5.58863e-05
26 *13:10 *692:78 0.000308559
27 *13:10 *692:90 0
28 *13:10 *716:20 0
29 *13:10 *716:38 1.44692e-05
30 *13:10 *718:10 0
31 *13:14 *1620:A 6.6923e-05
32 *13:14 *1798:A2 6.27789e-05
33 *13:14 *341:45 1.35628e-05
34 *13:14 *718:10 2.66127e-05
35 *13:14 *734:33 9.21364e-05
*RES
1 clk *13:8 14.3392 
2 *13:8 *13:10 48.2125 
3 *13:10 *13:14 27.2939 
4 *13:14 *2123:A 25.6618 
*END

*D_NET *14 0.00163471
*CONN
*P cpu_stall O
*I *2294:X O *D sky130_fd_sc_hd__clkdlybuf4s25_1
*CAP
1 cpu_stall 0.00055552
2 *2294:X 0.000261834
3 *14:8 0.000817354
4 *14:8 *447:34 0
*RES
1 *2294:X *14:8 42.8989 
2 *14:8 cpu_stall 17.4037 
*END

*D_NET *15 0.00160719
*CONN
*P display_enable O
*I *2364:LO O *D sky130_fd_sc_hd__conb_1
*CAP
1 display_enable 0.000546556
2 *2364:LO 0.00025704
3 *15:8 0.000803596
4 *15:8 *1985:A 0
*RES
1 *2364:LO *15:8 43.2511 
2 *15:8 display_enable 17.4037 
*END

*D_NET *16 0.00202576
*CONN
*P green[0] O
*I *2365:LO O *D sky130_fd_sc_hd__conb_1
*CAP
1 green[0] 0.00085003
2 *2365:LO 9.66756e-05
3 *16:12 0.000946705
4 green[0] green[1] 8.29264e-05
5 *16:12 red[3] 4.28826e-05
6 *16:12 red[6] 5.58152e-06
7 *16:12 *279:20 9.60814e-07
*RES
1 *2365:LO *16:12 46.5059 
2 *16:12 green[0] 10.2969 
*END

*D_NET *17 0.0021363
*CONN
*P green[1] O
*I *2366:LO O *D sky130_fd_sc_hd__conb_1
*CAP
1 green[1] 0.000790652
2 *2366:LO 7.06562e-05
3 *17:12 0.000861308
4 green[1] green[2] 8.43931e-05
5 green[1] red[6] 0.000220315
6 *17:12 red[3] 2.047e-05
7 *17:12 *125:10 5.58152e-06
8 green[0] green[1] 8.29264e-05
*RES
1 *2366:LO *17:12 46.42 
2 *17:12 green[1] 10.2969 
*END

*D_NET *18 0.0018242
*CONN
*P green[2] O
*I *2367:LO O *D sky130_fd_sc_hd__conb_1
*CAP
1 green[2] 0.000746309
2 *2367:LO 8.02598e-05
3 *18:12 0.000826569
4 green[2] green[3] 8.66653e-05
5 green[1] green[2] 8.43931e-05
*RES
1 *2367:LO *18:12 46.42 
2 *18:12 green[2] 10.2969 
*END

*D_NET *19 0.00180532
*CONN
*P green[3] O
*I *2368:LO O *D sky130_fd_sc_hd__conb_1
*CAP
1 green[3] 0.000732856
2 *2368:LO 8.31368e-05
3 *19:12 0.000815992
4 green[3] green[4] 8.66653e-05
5 green[2] green[3] 8.66653e-05
*RES
1 *2368:LO *19:12 46.42 
2 *19:12 green[3] 10.2969 
*END

*D_NET *20 0.00180532
*CONN
*P green[4] O
*I *2369:LO O *D sky130_fd_sc_hd__conb_1
*CAP
1 green[4] 0.000732856
2 *2369:LO 8.31368e-05
3 *20:12 0.000815992
4 green[4] green[5] 8.66653e-05
5 green[3] green[4] 8.66653e-05
*RES
1 *2369:LO *20:12 46.42 
2 *20:12 green[4] 10.2969 
*END

*D_NET *21 0.00180137
*CONN
*P green[5] O
*I *2370:LO O *D sky130_fd_sc_hd__conb_1
*CAP
1 green[5] 0.000774216
2 *2370:LO 8.31368e-05
3 *21:12 0.000857353
4 green[4] green[5] 8.66653e-05
*RES
1 *2370:LO *21:12 46.42 
2 *21:12 green[5] 10.2969 
*END

*D_NET *22 0.00174898
*CONN
*P green[6] O
*I *2371:LO O *D sky130_fd_sc_hd__conb_1
*CAP
1 green[6] 0.000349201
2 *2371:LO 0.00052529
3 *22:10 0.000874491
4 green[6] green[7] 0
5 *22:10 green[7] 0
*RES
1 *2371:LO *22:10 48.8025 
2 *22:10 green[6] 36.232 
*END

*D_NET *23 0.0012993
*CONN
*P green[7] O
*I *2372:LO O *D sky130_fd_sc_hd__conb_1
*CAP
1 green[7] 0.000649649
2 *2372:LO 0
3 *23:6 0.000649649
4 green[6] green[7] 0
5 *22:10 green[7] 0
*RES
1 *2372:LO *23:6 38 
2 *23:6 green[7] 29.0971 
*END

*D_NET *24 0.00172452
*CONN
*P mem_addr[0] O
*I *2373:LO O *D sky130_fd_sc_hd__conb_1
*CAP
1 mem_addr[0] 0.000286412
2 *2373:LO 0.000244506
3 *24:10 0.000530918
4 mem_addr[0] mem_addr[1] 0.000349128
5 mem_addr[0] *130:13 8.65161e-05
6 *24:10 mem_addr[7] 0.000103229
7 *24:10 *53:8 7.51453e-06
8 *13:8 mem_addr[0] 0.000116294
*RES
1 *2373:LO *24:10 42.7125 
2 *24:10 mem_addr[0] 9.35893 
*END

*D_NET *25 0.00321655
*CONN
*P mem_addr[10] O
*I *2383:LO O *D sky130_fd_sc_hd__conb_1
*CAP
1 mem_addr[10] 0.000246826
2 *2383:LO 0.000460197
3 *25:8 0.000707023
4 mem_addr[10] mem_addr[11] 0.000341045
5 mem_addr[10] mem_addr[12] 4.15523e-05
6 mem_addr[10] mem_addr[9] 0.000373141
7 mem_addr[10] *691:36 0
8 mem_addr[10] *693:21 0.000126151
9 *25:8 *1742:A_N 9.84794e-05
10 *25:8 *1742:B 0.000313244
11 *25:8 *1792:A 0.000227473
12 *25:8 *2260:A 0.000132865
13 *25:8 *421:42 9.84851e-05
14 *25:8 *694:8 5.00666e-05
*RES
1 *2383:LO *25:8 49.1029 
2 *25:8 mem_addr[10] 12.0591 
*END

*D_NET *26 0.00264153
*CONN
*P mem_addr[11] O
*I *2384:LO O *D sky130_fd_sc_hd__conb_1
*CAP
1 mem_addr[11] 0.000418771
2 *2384:LO 0.000193161
3 *26:8 0.000611932
4 mem_addr[11] mem_addr[12] 0.000305937
5 mem_addr[11] *27:12 0
6 mem_addr[11] *30:10 4.04908e-05
7 mem_addr[11] *691:36 0
8 mem_addr[11] *710:14 9.48381e-06
9 *26:8 *30:10 0.000316748
10 *26:8 *710:14 0.000403962
11 mem_addr[10] mem_addr[11] 0.000341045
*RES
1 *2384:LO *26:8 43.8621 
2 *26:8 mem_addr[11] 15.6751 
*END

*D_NET *27 0.00196252
*CONN
*P mem_addr[12] O
*I *2385:LO O *D sky130_fd_sc_hd__conb_1
*CAP
1 mem_addr[12] 0.000354931
2 *2385:LO 0.000181025
3 *27:12 0.000535955
4 mem_addr[12] mem_addr[13] 0.000458685
5 mem_addr[12] mem_addr[8] 0
6 *27:12 mem_addr[13] 2.21614e-05
7 *27:12 *691:36 6.22763e-05
8 mem_addr[10] mem_addr[12] 4.15523e-05
9 mem_addr[11] mem_addr[12] 0.000305937
10 mem_addr[11] *27:12 0
*RES
1 *2385:LO *27:12 48.8275 
2 *27:12 mem_addr[12] 1.7024 
*END

*D_NET *28 0.00146022
*CONN
*P mem_addr[13] O
*I *2386:LO O *D sky130_fd_sc_hd__conb_1
*CAP
1 mem_addr[13] 0.000294993
2 *2386:LO 0.000294993
3 mem_addr[13] mem_addr[14] 0.000389388
4 mem_addr[12] mem_addr[13] 0.000458685
5 *27:12 mem_addr[13] 2.21614e-05
*RES
1 *2386:LO mem_addr[13] 47.9376 
*END

*D_NET *29 0.00111977
*CONN
*P mem_addr[14] O
*I *2387:LO O *D sky130_fd_sc_hd__conb_1
*CAP
1 mem_addr[14] 0.000238092
2 *2387:LO 0.000238092
3 mem_addr[14] mem_addr[15] 0.000254198
4 mem_addr[14] mem_addr[17] 0
5 mem_addr[14] *691:36 0
6 mem_addr[13] mem_addr[14] 0.000389388
*RES
1 *2387:LO mem_addr[14] 47.68 
*END

*D_NET *30 0.00151195
*CONN
*P mem_addr[15] O
*I *2388:LO O *D sky130_fd_sc_hd__conb_1
*CAP
1 mem_addr[15] 8.47753e-05
2 *2388:LO 0.000252066
3 *30:10 0.000336842
4 mem_addr[15] mem_addr[16] 0.000202458
5 mem_addr[15] mem_addr[17] 2.4375e-05
6 *30:10 *31:10 0
7 mem_addr[11] *30:10 4.04908e-05
8 mem_addr[14] mem_addr[15] 0.000254198
9 *26:8 *30:10 0.000316748
*RES
1 *2388:LO *30:10 43.8104 
2 *30:10 mem_addr[15] 8.84373 
*END

*D_NET *31 0.00163526
*CONN
*P mem_addr[16] O
*I *2389:LO O *D sky130_fd_sc_hd__conb_1
*CAP
1 mem_addr[16] 6.54016e-05
2 *2389:LO 0.000525188
3 *31:10 0.00059059
4 mem_addr[16] mem_addr[17] 0.000199079
5 *31:10 *34:12 5.25436e-05
6 *31:10 *710:14 0
7 mem_addr[15] mem_addr[16] 0.000202458
8 *30:10 *31:10 0
*RES
1 *2389:LO *31:10 46.8968 
2 *31:10 mem_addr[16] 8.672 
*END

*D_NET *32 0.00135982
*CONN
*P mem_addr[17] O
*I *2390:LO O *D sky130_fd_sc_hd__conb_1
*CAP
1 mem_addr[17] 0.000339193
2 *2390:LO 0.000339193
3 mem_addr[17] mem_addr[18] 0.000386652
4 mem_addr[17] *691:36 0
5 mem_addr[17] *710:14 7.13284e-05
6 mem_addr[14] mem_addr[17] 0
7 mem_addr[15] mem_addr[17] 2.4375e-05
8 mem_addr[16] mem_addr[17] 0.000199079
*RES
1 *2390:LO mem_addr[17] 48.3843 
*END

*D_NET *33 0.00150438
*CONN
*P mem_addr[18] O
*I *2391:LO O *D sky130_fd_sc_hd__conb_1
*CAP
1 mem_addr[18] 0.000365855
2 *2391:LO 0.000365855
3 mem_addr[18] mem_addr[19] 0.000354297
4 mem_addr[18] mem_addr[20] 2.23872e-05
5 mem_addr[18] *691:36 9.33529e-06
6 mem_addr[17] mem_addr[18] 0.000386652
*RES
1 *2391:LO mem_addr[18] 47.9376 
*END

*D_NET *34 0.00141443
*CONN
*P mem_addr[19] O
*I *2392:LO O *D sky130_fd_sc_hd__conb_1
*CAP
1 mem_addr[19] 0.000120183
2 *2392:LO 0.000146196
3 *34:12 0.000266379
4 mem_addr[19] mem_addr[20] 0.000350572
5 *34:12 *710:14 0.000124253
6 mem_addr[18] mem_addr[19] 0.000354297
7 *31:10 *34:12 5.25436e-05
*RES
1 *2392:LO *34:12 48.8275 
2 *34:12 mem_addr[19] 1.1872 
*END

*D_NET *35 0.00210815
*CONN
*P mem_addr[1] O
*I *2374:LO O *D sky130_fd_sc_hd__conb_1
*CAP
1 mem_addr[1] 0.000420274
2 *2374:LO 0.000154307
3 *35:12 0.000574582
4 mem_addr[1] mem_addr[2] 0.000435575
5 *35:12 mem_addr[7] 0
6 *35:12 *2259:A 2.43944e-05
7 *35:12 *51:10 4.98333e-05
8 *35:12 *692:10 0.000100061
9 mem_addr[0] mem_addr[1] 0.000349128
*RES
1 *2374:LO *35:12 48.7239 
2 *35:12 mem_addr[1] 1.78827 
*END

*D_NET *36 0.00140894
*CONN
*P mem_addr[20] O
*I *2301:LO O *D sky130_fd_sc_hd__conb_1
*CAP
1 mem_addr[20] 0.000337914
2 *2301:LO 0.000337914
3 mem_addr[20] mem_addr[21] 0.000352387
4 mem_addr[20] *691:49 7.76909e-06
5 mem_addr[18] mem_addr[20] 2.23872e-05
6 mem_addr[19] mem_addr[20] 0.000350572
*RES
1 *2301:LO mem_addr[20] 47.9376 
*END

*D_NET *37 0.00125106
*CONN
*P mem_addr[21] O
*I *2302:LO O *D sky130_fd_sc_hd__conb_1
*CAP
1 mem_addr[21] 0.000291555
2 *2302:LO 0.000291555
3 mem_addr[21] mem_addr[22] 0.000244801
4 mem_addr[21] mem_addr[24] 0
5 mem_addr[21] *710:14 7.07631e-05
6 mem_addr[20] mem_addr[21] 0.000352387
*RES
1 *2302:LO mem_addr[21] 48.3843 
*END

*D_NET *38 0.00196334
*CONN
*P mem_addr[22] O
*I *2303:LO O *D sky130_fd_sc_hd__conb_1
*CAP
1 mem_addr[22] 0.000141123
2 *2303:LO 0.000408852
3 *38:10 0.000549974
4 mem_addr[22] mem_addr[23] 8.65161e-05
5 mem_addr[22] mem_addr[24] 6.92297e-05
6 *38:10 *2178:A 0
7 *38:10 *39:10 0.000363852
8 *38:10 *43:10 9.89906e-05
9 mem_addr[21] mem_addr[22] 0.000244801
*RES
1 *2303:LO *38:10 46.5239 
2 *38:10 mem_addr[22] 8.9296 
*END

*D_NET *39 0.00138751
*CONN
*P mem_addr[23] O
*I *2304:LO O *D sky130_fd_sc_hd__conb_1
*CAP
1 mem_addr[23] 4.67395e-05
2 *2304:LO 0.000380155
3 *39:10 0.000426894
4 mem_addr[23] mem_addr[24] 8.33507e-05
5 mem_addr[22] mem_addr[23] 8.65161e-05
6 *38:10 *39:10 0.000363852
*RES
1 *2304:LO *39:10 46.6689 
2 *39:10 mem_addr[23] 8.32853 
*END

*D_NET *40 0.00225767
*CONN
*P mem_addr[24] O
*I *2305:LO O *D sky130_fd_sc_hd__conb_1
*CAP
1 mem_addr[24] 0.000823795
2 *2305:LO 0.000823795
3 mem_addr[24] mem_addr[25] 0.000447637
4 mem_addr[24] *575:8 9.86551e-06
5 mem_addr[21] mem_addr[24] 0
6 mem_addr[22] mem_addr[24] 6.92297e-05
7 mem_addr[23] mem_addr[24] 8.33507e-05
*RES
1 *2305:LO mem_addr[24] 48.4528 
*END

*D_NET *41 0.00192258
*CONN
*P mem_addr[25] O
*I *2306:LO O *D sky130_fd_sc_hd__conb_1
*CAP
1 mem_addr[25] 0.000413089
2 *2306:LO 0.00014771
3 *41:12 0.000560799
4 mem_addr[25] mem_addr[26] 0.000254198
5 mem_addr[25] mem_addr[27] 4.88813e-05
6 mem_addr[25] mem_addr[28] 0
7 *41:12 *2178:A 0
8 *41:12 *691:49 5.02657e-05
9 mem_addr[24] mem_addr[25] 0.000447637
*RES
1 *2306:LO *41:12 48.2475 
2 *41:12 mem_addr[25] 1.78827 
*END

*D_NET *42 0.00161251
*CONN
*P mem_addr[26] O
*I *2307:LO O *D sky130_fd_sc_hd__conb_1
*CAP
1 mem_addr[26] 8.05314e-05
2 *2307:LO 0.000473217
3 *42:10 0.000553748
4 mem_addr[26] mem_addr[27] 0.000250818
5 *42:10 *43:10 0
6 *42:10 *48:12 0
7 mem_addr[25] mem_addr[26] 0.000254198
*RES
1 *2307:LO *42:10 46.2961 
2 *42:10 mem_addr[26] 8.84373 
*END

*D_NET *43 0.00173788
*CONN
*P mem_addr[27] O
*I *2308:LO O *D sky130_fd_sc_hd__conb_1
*CAP
1 mem_addr[27] 0.000150163
2 *2308:LO 0.000278541
3 *43:10 0.000428704
4 mem_addr[27] mem_addr[28] 0.00034648
5 *43:10 *2178:A 0.000135304
6 *43:10 *691:49 0
7 mem_addr[25] mem_addr[27] 4.88813e-05
8 mem_addr[26] mem_addr[27] 0.000250818
9 *38:10 *43:10 9.89906e-05
10 *42:10 *43:10 0
*RES
1 *2308:LO *43:10 42.9404 
2 *43:10 mem_addr[27] 9.1872 
*END

*D_NET *44 0.00149421
*CONN
*P mem_addr[28] O
*I *2309:LO O *D sky130_fd_sc_hd__conb_1
*CAP
1 mem_addr[28] 0.000355081
2 *2309:LO 0.000355081
3 mem_addr[28] mem_addr[29] 0.000405073
4 mem_addr[28] mem_addr[30] 2.31547e-05
5 mem_addr[28] *691:49 9.33529e-06
6 mem_addr[25] mem_addr[28] 0
7 mem_addr[27] mem_addr[28] 0.00034648
*RES
1 *2309:LO mem_addr[28] 47.9376 
*END

*D_NET *45 0.00123496
*CONN
*P mem_addr[29] O
*I *2310:LO O *D sky130_fd_sc_hd__conb_1
*CAP
1 mem_addr[29] 0.000219176
2 *2310:LO 0.000219176
3 mem_addr[29] mem_addr[30] 0.000391536
4 mem_addr[29] *691:49 0
5 mem_addr[28] mem_addr[29] 0.000405073
*RES
1 *2310:LO mem_addr[29] 48.3843 
*END

*D_NET *46 0.00267202
*CONN
*P mem_addr[2] O
*I *2375:LO O *D sky130_fd_sc_hd__conb_1
*CAP
1 mem_addr[2] 0.000727177
2 *2375:LO 0.000100976
3 *46:10 0.000828153
4 mem_addr[2] mem_addr[3] 0.000413618
5 *46:10 *49:12 0.00016652
6 mem_addr[1] mem_addr[2] 0.000435575
7 *13:8 mem_addr[2] 0
*RES
1 *2375:LO *46:10 48.4339 
2 *46:10 mem_addr[2] 2.38933 
*END

*D_NET *47 0.00144798
*CONN
*P mem_addr[30] O
*I *2311:LO O *D sky130_fd_sc_hd__conb_1
*CAP
1 mem_addr[30] 0.000336197
2 *2311:LO 0.000336197
3 mem_addr[30] mem_addr[31] 0.000302558
4 mem_addr[30] mem_wdata[0] 5.41262e-05
5 mem_addr[30] *691:49 4.21594e-06
6 mem_addr[28] mem_addr[30] 2.31547e-05
7 mem_addr[29] mem_addr[30] 0.000391536
*RES
1 *2311:LO mem_addr[30] 47.9376 
*END

*D_NET *48 0.00125842
*CONN
*P mem_addr[31] O
*I *2312:LO O *D sky130_fd_sc_hd__conb_1
*CAP
1 mem_addr[31] 0.000101859
2 *2312:LO 0.000224791
3 *48:12 0.00032665
4 mem_addr[31] mem_wdata[0] 0.000302558
5 mem_addr[30] mem_addr[31] 0.000302558
6 *42:10 *48:12 0
*RES
1 *2312:LO *48:12 49.7804 
2 *48:12 mem_addr[31] 1.01547 
*END

*D_NET *49 0.00296467
*CONN
*P mem_addr[3] O
*I *2376:LO O *D sky130_fd_sc_hd__conb_1
*CAP
1 mem_addr[3] 0.000635356
2 *2376:LO 0.000120721
3 *49:12 0.000756077
4 mem_addr[3] mem_addr[4] 0.000774412
5 *49:12 *2259:A 4.00113e-05
6 *49:12 *692:10 5.79559e-05
7 mem_addr[2] mem_addr[3] 0.000413618
8 *46:10 *49:12 0.00016652
*RES
1 *2376:LO *49:12 49.0554 
2 *49:12 mem_addr[3] 2.5424 
*END

*D_NET *50 0.00222113
*CONN
*P mem_addr[4] O
*I *2377:LO O *D sky130_fd_sc_hd__conb_1
*CAP
1 mem_addr[4] 0.00047028
2 *2377:LO 0.00047028
3 mem_addr[4] mem_addr[5] 0.00046682
4 mem_addr[4] mem_addr[6] 1.59951e-05
5 mem_addr[4] *2259:A 2.33476e-05
6 mem_addr[3] mem_addr[4] 0.000774412
*RES
1 *2377:LO mem_addr[4] 48.4528 
*END

*D_NET *51 0.00301805
*CONN
*P mem_addr[5] O
*I *2378:LO O *D sky130_fd_sc_hd__conb_1
*CAP
1 mem_addr[5] 0.000379106
2 *2378:LO 0.000378955
3 *51:10 0.000758061
4 mem_addr[5] mem_addr[6] 0.000503506
5 *51:10 mem_addr[7] 0
6 *51:10 *55:10 0
7 *51:10 *558:8 0.000481765
8 *51:10 *693:21 0
9 mem_addr[4] mem_addr[5] 0.00046682
10 *35:12 *51:10 4.98333e-05
*RES
1 *2378:LO *51:10 46.1096 
2 *51:10 mem_addr[5] 9.87413 
*END

*D_NET *52 0.00238002
*CONN
*P mem_addr[6] O
*I *2379:LO O *D sky130_fd_sc_hd__conb_1
*CAP
1 mem_addr[6] 0.000743268
2 *2379:LO 0.000743268
3 mem_addr[6] mem_addr[7] 0.000354297
4 mem_addr[6] mem_addr[8] 1.96829e-05
5 mem_addr[6] *421:42 0
6 mem_addr[4] mem_addr[6] 1.59951e-05
7 mem_addr[5] mem_addr[6] 0.000503506
*RES
1 *2379:LO mem_addr[6] 48.7104 
*END

*D_NET *53 0.00306
*CONN
*P mem_addr[7] O
*I *2380:LO O *D sky130_fd_sc_hd__conb_1
*CAP
1 mem_addr[7] 0.000789044
2 *2380:LO 6.60591e-05
3 *53:8 0.000855103
4 mem_addr[7] mem_addr[8] 0.000350572
5 mem_addr[7] *55:10 0.000534183
6 mem_addr[6] mem_addr[7] 0.000354297
7 *24:10 mem_addr[7] 0.000103229
8 *24:10 *53:8 7.51453e-06
9 *35:12 mem_addr[7] 0
10 *51:10 mem_addr[7] 0
*RES
1 *2380:LO *53:8 39.0979 
2 *53:8 mem_addr[7] 22.8897 
*END

*D_NET *54 0.0034964
*CONN
*P mem_addr[8] O
*I *2381:LO O *D sky130_fd_sc_hd__conb_1
*CAP
1 mem_addr[8] 0.000423632
2 *2381:LO 0.000691669
3 *54:12 0.0011153
4 mem_addr[8] mem_addr[9] 0.000380167
5 mem_addr[8] *691:36 1.53581e-05
6 mem_addr[8] *693:21 3.64059e-05
7 mem_addr[8] *720:10 4.89774e-05
8 *54:12 *1635:A 2.30292e-05
9 *54:12 *1717:B 5.29473e-05
10 *54:12 *2196:A 7.15126e-05
11 *54:12 *2226:A 2.31687e-05
12 *54:12 *595:10 5.50049e-05
13 *54:12 *720:14 0.000159634
14 *54:12 *720:24 2.93335e-05
15 mem_addr[12] mem_addr[8] 0
16 mem_addr[6] mem_addr[8] 1.96829e-05
17 mem_addr[7] mem_addr[8] 0.000350572
*RES
1 *2381:LO *54:12 48.7921 
2 *54:12 mem_addr[8] 11.6983 
*END

*D_NET *55 0.00292261
*CONN
*P mem_addr[9] O
*I *2382:LO O *D sky130_fd_sc_hd__conb_1
*CAP
1 mem_addr[9] 0.000130579
2 *2382:LO 0.000406713
3 *55:10 0.000537292
4 *55:10 *693:21 0.000560535
5 mem_addr[10] mem_addr[9] 0.000373141
6 mem_addr[7] *55:10 0.000534183
7 mem_addr[8] mem_addr[9] 0.000380167
8 *51:10 *55:10 0
*RES
1 *2382:LO *55:10 48.8025 
2 *55:10 mem_addr[9] 9.27307 
*END

*D_NET *56 0.00204833
*CONN
*P mem_read O
*I *2313:LO O *D sky130_fd_sc_hd__conb_1
*CAP
1 mem_read 0.000221434
2 *2313:LO 0.000578058
3 *56:14 0.000799492
4 mem_read mem_write 0.000259669
5 *56:14 *81:10 0.000189681
*RES
1 *2313:LO *56:14 48.9268 
2 *56:14 mem_read 9.01547 
*END

*D_NET *57 0.00184913
*CONN
*P mem_wdata[0] O
*I *2314:LO O *D sky130_fd_sc_hd__conb_1
*CAP
1 mem_wdata[0] 0.000300802
2 *2314:LO 0.000196672
3 *57:12 0.000497473
4 mem_wdata[0] mem_wdata[1] 0.00046687
5 mem_wdata[0] mem_wdata[2] 8.46364e-06
6 *57:12 mem_wdata[1] 2.21614e-05
7 mem_addr[30] mem_wdata[0] 5.41262e-05
8 mem_addr[31] mem_wdata[0] 0.000302558
*RES
1 *2314:LO *57:12 48.8275 
2 *57:12 mem_wdata[0] 1.7024 
*END

*D_NET *58 0.00134763
*CONN
*P mem_wdata[10] O
*I *2324:LO O *D sky130_fd_sc_hd__conb_1
*CAP
1 mem_wdata[10] 0.000336889
2 *2324:LO 0.000336889
3 mem_wdata[10] mem_wdata[11] 0.000222189
4 mem_wdata[10] mem_wdata[12] 6.01241e-05
5 mem_wdata[10] mem_wdata[9] 0.000391536
*RES
1 *2324:LO mem_wdata[10] 49.7929 
*END

*D_NET *59 0.00129755
*CONN
*P mem_wdata[11] O
*I *2325:LO O *D sky130_fd_sc_hd__conb_1
*CAP
1 mem_wdata[11] 0.000110455
2 *2325:LO 0.000317712
3 *59:10 0.000428167
4 mem_wdata[11] mem_wdata[12] 0.000219024
5 mem_wdata[10] mem_wdata[11] 0.000222189
*RES
1 *2325:LO *59:10 43.8104 
2 *59:10 mem_wdata[11] 8.84373 
*END

*D_NET *60 0.00137179
*CONN
*P mem_wdata[12] O
*I *2326:LO O *D sky130_fd_sc_hd__conb_1
*CAP
1 mem_wdata[12] 0.000368965
2 *2326:LO 0.000368965
3 mem_wdata[12] mem_wdata[13] 0.000354716
4 mem_wdata[10] mem_wdata[12] 6.01241e-05
5 mem_wdata[11] mem_wdata[12] 0.000219024
*RES
1 *2326:LO mem_wdata[12] 49.0886 
*END

*D_NET *61 0.00142943
*CONN
*P mem_wdata[13] O
*I *2327:LO O *D sky130_fd_sc_hd__conb_1
*CAP
1 mem_wdata[13] 0.000365419
2 *2327:LO 0.000365419
3 mem_wdata[13] mem_wdata[14] 0.000343873
4 mem_wdata[12] mem_wdata[13] 0.000354716
*RES
1 *2327:LO mem_wdata[13] 47.9376 
*END

*D_NET *62 0.00140877
*CONN
*P mem_wdata[14] O
*I *2328:LO O *D sky130_fd_sc_hd__conb_1
*CAP
1 mem_wdata[14] 0.000246816
2 *2328:LO 0.000174537
3 *62:10 0.000421352
4 mem_wdata[14] mem_wdata[15] 0.000222189
5 *62:10 *200:10 0
6 mem_wdata[13] mem_wdata[14] 0.000343873
*RES
1 *2328:LO *62:10 49.1382 
2 *62:10 mem_wdata[14] 1.35893 
*END

*D_NET *63 0.00130804
*CONN
*P mem_wdata[15] O
*I *2329:LO O *D sky130_fd_sc_hd__conb_1
*CAP
1 mem_wdata[15] 0.000102714
2 *2329:LO 0.000326048
3 *63:10 0.000428762
4 mem_wdata[15] mem_wdata[16] 0.000228328
5 mem_wdata[15] mem_wdata[19] 0
6 mem_wdata[14] mem_wdata[15] 0.000222189
*RES
1 *2329:LO *63:10 43.8104 
2 *63:10 mem_wdata[15] 8.84373 
*END

*D_NET *64 0.00163786
*CONN
*P mem_wdata[16] O
*I *2330:LO O *D sky130_fd_sc_hd__conb_1
*CAP
1 mem_wdata[16] 8.89834e-05
2 *2330:LO 0.00033081
3 *64:10 0.000419794
4 mem_wdata[16] mem_wdata[17] 0.000150719
5 mem_wdata[16] mem_wdata[19] 0
6 *64:10 *65:10 0.000419228
7 mem_wdata[15] mem_wdata[16] 0.000228328
*RES
1 *2330:LO *64:10 46.7311 
2 *64:10 mem_wdata[16] 8.75787 
*END

*D_NET *65 0.00179912
*CONN
*P mem_wdata[17] O
*I *2331:LO O *D sky130_fd_sc_hd__conb_1
*CAP
1 mem_wdata[17] 4.57086e-05
2 *2331:LO 0.000393611
3 *65:10 0.00043932
4 mem_wdata[17] mem_wdata[18] 0.000124849
5 mem_wdata[17] mem_wdata[19] 1.38508e-05
6 *65:10 mem_wdata[18] 0.000211831
7 mem_wdata[16] mem_wdata[17] 0.000150719
8 *64:10 *65:10 0.000419228
*RES
1 *2331:LO *65:10 48.5332 
2 *65:10 mem_wdata[17] 8.50027 
*END

*D_NET *66 0.00248167
*CONN
*P mem_wdata[18] O
*I *2332:LO O *D sky130_fd_sc_hd__conb_1
*CAP
1 mem_wdata[18] 0.000485319
2 *2332:LO 0.000308796
3 *66:8 0.000794115
4 mem_wdata[18] mem_wdata[19] 0.00012147
5 mem_wdata[18] mem_wdata[20] 0
6 mem_wdata[18] mem_wdata[23] 3.66936e-05
7 mem_wdata[18] mem_wdata[24] 0.000127918
8 *66:8 *69:8 0.000270682
9 mem_wdata[17] mem_wdata[18] 0.000124849
10 *65:10 mem_wdata[18] 0.000211831
*RES
1 *2332:LO *66:8 43.3857 
2 *66:8 mem_wdata[18] 18.5955 
*END

*D_NET *67 0.00183695
*CONN
*P mem_wdata[19] O
*I *2333:LO O *D sky130_fd_sc_hd__conb_1
*CAP
1 mem_wdata[19] 0.000652694
2 *2333:LO 0.000652694
3 mem_wdata[19] mem_wdata[20] 0.000245176
4 mem_wdata[19] mem_wdata[21] 0.000125717
5 mem_wdata[19] *769:63 2.5343e-05
6 mem_wdata[15] mem_wdata[19] 0
7 mem_wdata[16] mem_wdata[19] 0
8 mem_wdata[17] mem_wdata[19] 1.38508e-05
9 mem_wdata[18] mem_wdata[19] 0.00012147
*RES
1 *2333:LO mem_wdata[19] 48.4341 
*END

*D_NET *68 0.00144953
*CONN
*P mem_wdata[1] O
*I *2315:LO O *D sky130_fd_sc_hd__conb_1
*CAP
1 mem_wdata[1] 0.000256691
2 *2315:LO 0.000256691
3 mem_wdata[1] mem_wdata[2] 0.000447119
4 mem_wdata[0] mem_wdata[1] 0.00046687
5 *57:12 mem_wdata[1] 2.21614e-05
*RES
1 *2315:LO mem_wdata[1] 47.9376 
*END

*D_NET *69 0.00229254
*CONN
*P mem_wdata[20] O
*I *2334:LO O *D sky130_fd_sc_hd__conb_1
*CAP
1 mem_wdata[20] 0.000503375
2 *2334:LO 0.000194889
3 *69:8 0.000698265
4 mem_wdata[20] mem_wdata[21] 0.000246004
5 mem_wdata[20] mem_wdata[23] 0.000134151
6 mem_wdata[20] *71:8 0
7 *69:8 *72:8 0
8 mem_wdata[18] mem_wdata[20] 0
9 mem_wdata[19] mem_wdata[20] 0.000245176
10 *66:8 *69:8 0.000270682
*RES
1 *2334:LO *69:8 42.4329 
2 *69:8 mem_wdata[20] 16.5598 
*END

*D_NET *70 0.00131308
*CONN
*P mem_wdata[21] O
*I *2335:LO O *D sky130_fd_sc_hd__conb_1
*CAP
1 mem_wdata[21] 0.000278248
2 *2335:LO 0.000278248
3 mem_wdata[21] mem_wdata[22] 0.000384865
4 mem_wdata[21] *198:10 0
5 mem_wdata[19] mem_wdata[21] 0.000125717
6 mem_wdata[20] mem_wdata[21] 0.000246004
*RES
1 *2335:LO mem_wdata[21] 47.8517 
*END

*D_NET *71 0.00198137
*CONN
*P mem_wdata[22] O
*I *2336:LO O *D sky130_fd_sc_hd__conb_1
*CAP
1 mem_wdata[22] 0.000240635
2 *2336:LO 0.000458436
3 *71:8 0.000699071
4 mem_wdata[22] mem_wdata[23] 0.000198366
5 mem_wdata[22] mem_wdata[25] 0
6 *71:8 mem_wdata[23] 0
7 *71:8 *75:10 0
8 *71:8 *198:10 0
9 mem_wdata[20] *71:8 0
10 mem_wdata[21] mem_wdata[22] 0.000384865
*RES
1 *2336:LO *71:8 46.0682 
2 *71:8 mem_wdata[22] 9.35893 
*END

*D_NET *72 0.00198
*CONN
*P mem_wdata[23] O
*I *2337:LO O *D sky130_fd_sc_hd__conb_1
*CAP
1 mem_wdata[23] 0.000311136
2 *2337:LO 0.000288703
3 *72:8 0.000599839
4 mem_wdata[23] mem_wdata[24] 0.000360911
5 mem_wdata[23] mem_wdata[25] 2.77015e-05
6 *72:8 *73:8 2.25001e-05
7 mem_wdata[18] mem_wdata[23] 3.66936e-05
8 mem_wdata[20] mem_wdata[23] 0.000134151
9 mem_wdata[22] mem_wdata[23] 0.000198366
10 *69:8 *72:8 0
11 *71:8 mem_wdata[23] 0
*RES
1 *2337:LO *72:8 43.3857 
2 *72:8 mem_wdata[23] 15.6838 
*END

*D_NET *73 0.00196732
*CONN
*P mem_wdata[24] O
*I *2338:LO O *D sky130_fd_sc_hd__conb_1
*CAP
1 mem_wdata[24] 0.000306496
2 *2338:LO 0.000289473
3 *73:8 0.000595969
4 mem_wdata[24] mem_wdata[25] 0.000146626
5 mem_wdata[24] mem_wdata[27] 0.000117422
6 *73:8 *76:8 0
7 mem_wdata[18] mem_wdata[24] 0.000127918
8 mem_wdata[23] mem_wdata[24] 0.000360911
9 *72:8 *73:8 2.25001e-05
*RES
1 *2338:LO *73:8 42.9093 
2 *73:8 mem_wdata[24] 15.8642 
*END

*D_NET *74 0.00188258
*CONN
*P mem_wdata[25] O
*I *2339:LO O *D sky130_fd_sc_hd__conb_1
*CAP
1 mem_wdata[25] 0.000609767
2 *2339:LO 0.000609767
3 mem_wdata[25] mem_wdata[26] 0.000488718
4 mem_wdata[22] mem_wdata[25] 0
5 mem_wdata[23] mem_wdata[25] 2.77015e-05
6 mem_wdata[24] mem_wdata[25] 0.000146626
*RES
1 *2339:LO mem_wdata[25] 48.1952 
*END

*D_NET *75 0.00197335
*CONN
*P mem_wdata[26] O
*I *2340:LO O *D sky130_fd_sc_hd__conb_1
*CAP
1 mem_wdata[26] 0.000477474
2 *2340:LO 0.000137917
3 *75:10 0.000615391
4 mem_wdata[26] mem_wdata[27] 9.89797e-05
5 mem_wdata[26] mem_wdata[28] 0.000154873
6 mem_wdata[25] mem_wdata[26] 0.000488718
7 *71:8 *75:10 0
*RES
1 *2340:LO *75:10 48.4339 
2 *75:10 mem_wdata[26] 1.87413 
*END

*D_NET *76 0.0017867
*CONN
*P mem_wdata[27] O
*I *2341:LO O *D sky130_fd_sc_hd__conb_1
*CAP
1 mem_wdata[27] 0.000333996
2 *2341:LO 0.000263296
3 *76:8 0.000597292
4 mem_wdata[27] mem_wdata[28] 9.89797e-05
5 mem_wdata[27] *80:10 0
6 mem_wdata[27] *81:10 0
7 *76:8 *80:10 0.000276734
8 mem_wdata[24] mem_wdata[27] 0.000117422
9 mem_wdata[26] mem_wdata[27] 9.89797e-05
10 *73:8 *76:8 0
*RES
1 *2341:LO *76:8 43.8621 
2 *76:8 mem_wdata[27] 14.9882 
*END

*D_NET *77 0.00163242
*CONN
*P mem_wdata[28] O
*I *2342:LO O *D sky130_fd_sc_hd__conb_1
*CAP
1 mem_wdata[28] 0.000489452
2 *2342:LO 0.000489452
3 mem_wdata[28] mem_wdata[29] 0.000392795
4 mem_wdata[28] *78:8 6.87115e-06
5 mem_wdata[26] mem_wdata[28] 0.000154873
6 mem_wdata[27] mem_wdata[28] 9.89797e-05
*RES
1 *2342:LO mem_wdata[28] 49.3462 
*END

*D_NET *78 0.00190317
*CONN
*P mem_wdata[29] O
*I *2343:LO O *D sky130_fd_sc_hd__conb_1
*CAP
1 mem_wdata[29] 0.000281602
2 *2343:LO 0.000330963
3 *78:8 0.000612565
4 mem_wdata[29] mem_wdata[30] 0.000246012
5 mem_wdata[29] mem_write 0
6 *78:8 mem_write 3.23593e-05
7 *78:8 *80:10 0
8 *78:8 *81:10 0
9 mem_wdata[28] mem_wdata[29] 0.000392795
10 mem_wdata[28] *78:8 6.87115e-06
*RES
1 *2343:LO *78:8 43.9554 
2 *78:8 mem_wdata[29] 9.35893 
*END

*D_NET *79 0.00188687
*CONN
*P mem_wdata[2] O
*I *2316:LO O *D sky130_fd_sc_hd__conb_1
*CAP
1 mem_wdata[2] 0.000524843
2 *2316:LO 0.000524843
3 mem_wdata[2] mem_wdata[3] 0.000381598
4 mem_wdata[0] mem_wdata[2] 8.46364e-06
5 mem_wdata[1] mem_wdata[2] 0.000447119
*RES
1 *2316:LO mem_wdata[2] 48.4528 
*END

*D_NET *80 0.00166703
*CONN
*P mem_wdata[30] O
*I *2344:LO O *D sky130_fd_sc_hd__conb_1
*CAP
1 mem_wdata[30] 0.000117293
2 *2344:LO 0.000334332
3 *80:10 0.000451625
4 mem_wdata[30] mem_wdata[31] 0.000173092
5 mem_wdata[30] mem_write 2.05341e-05
6 *80:10 *81:10 4.74075e-05
7 mem_wdata[27] *80:10 0
8 mem_wdata[29] mem_wdata[30] 0.000246012
9 *76:8 *80:10 0.000276734
10 *78:8 *80:10 0
*RES
1 *2344:LO *80:10 45.2189 
2 *80:10 mem_wdata[30] 8.84373 
*END

*D_NET *81 0.00181509
*CONN
*P mem_wdata[31] O
*I *2345:LO O *D sky130_fd_sc_hd__conb_1
*CAP
1 mem_wdata[31] 9.78868e-05
2 *2345:LO 0.00051802
3 *81:10 0.000615907
4 mem_wdata[31] mem_write 0.000173092
5 mem_wdata[27] *81:10 0
6 mem_wdata[30] mem_wdata[31] 0.000173092
7 *56:14 *81:10 0.000189681
8 *78:8 *81:10 0
9 *80:10 *81:10 4.74075e-05
*RES
1 *2345:LO *81:10 49.3204 
2 *81:10 mem_wdata[31] 8.672 
*END

*D_NET *82 0.00188118
*CONN
*P mem_wdata[3] O
*I *2317:LO O *D sky130_fd_sc_hd__conb_1
*CAP
1 mem_wdata[3] 0.000437289
2 *2317:LO 0.000437289
3 mem_wdata[3] mem_wdata[4] 0.000619736
4 mem_wdata[3] mem_wdata[6] 5.27114e-06
5 mem_wdata[2] mem_wdata[3] 0.000381598
*RES
1 *2317:LO mem_wdata[3] 48.4341 
*END

*D_NET *83 0.00180623
*CONN
*P mem_wdata[4] O
*I *2318:LO O *D sky130_fd_sc_hd__conb_1
*CAP
1 mem_wdata[4] 0.000278478
2 *2318:LO 0.000278478
3 mem_wdata[4] mem_wdata[5] 0.000401863
4 mem_wdata[4] mem_wdata[6] 1.42045e-05
5 mem_wdata[4] *84:8 5.10773e-05
6 mem_wdata[4] *85:10 0.000141975
7 mem_wdata[4] *86:10 2.04189e-05
8 mem_wdata[3] mem_wdata[4] 0.000619736
*RES
1 *2318:LO mem_wdata[4] 49.9646 
*END

*D_NET *84 0.00173141
*CONN
*P mem_wdata[5] O
*I *2319:LO O *D sky130_fd_sc_hd__conb_1
*CAP
1 mem_wdata[5] 0.000161447
2 *2319:LO 0.000247807
3 *84:8 0.000409254
4 mem_wdata[5] mem_wdata[6] 0.000390744
5 *84:8 *86:10 6.92183e-05
6 mem_wdata[4] mem_wdata[5] 0.000401863
7 mem_wdata[4] *84:8 5.10773e-05
*RES
1 *2319:LO *84:8 42.5468 
2 *84:8 mem_wdata[5] 9.35893 
*END

*D_NET *85 0.00176226
*CONN
*P mem_wdata[6] O
*I *2320:LO O *D sky130_fd_sc_hd__conb_1
*CAP
1 mem_wdata[6] 0.00030546
2 *2320:LO 0.000105132
3 *85:10 0.000410592
4 mem_wdata[6] mem_wdata[7] 0.000380167
5 mem_wdata[6] mem_wdata[8] 8.71008e-06
6 *85:10 *86:10 0
7 mem_wdata[3] mem_wdata[6] 5.27114e-06
8 mem_wdata[4] mem_wdata[6] 1.42045e-05
9 mem_wdata[4] *85:10 0.000141975
10 mem_wdata[5] mem_wdata[6] 0.000390744
*RES
1 *2320:LO *85:10 48.4339 
2 *85:10 mem_wdata[6] 1.61653 
*END

*D_NET *86 0.00164917
*CONN
*P mem_wdata[7] O
*I *2321:LO O *D sky130_fd_sc_hd__conb_1
*CAP
1 mem_wdata[7] 0.000130579
2 *2321:LO 0.000272533
3 *86:10 0.000403112
4 mem_wdata[7] mem_wdata[8] 0.000373141
5 *86:10 *208:8 0
6 mem_wdata[4] *86:10 2.04189e-05
7 mem_wdata[6] mem_wdata[7] 0.000380167
8 *84:8 *86:10 6.92183e-05
9 *85:10 *86:10 0
*RES
1 *2321:LO *86:10 42.4639 
2 *86:10 mem_wdata[7] 9.27307 
*END

*D_NET *87 0.00132583
*CONN
*P mem_wdata[8] O
*I *2322:LO O *D sky130_fd_sc_hd__conb_1
*CAP
1 mem_wdata[8] 0.000268261
2 *2322:LO 0.000268261
3 mem_wdata[8] mem_wdata[9] 0.000407452
4 mem_wdata[6] mem_wdata[8] 8.71008e-06
5 mem_wdata[7] mem_wdata[8] 0.000373141
*RES
1 *2322:LO mem_wdata[8] 49.0886 
*END

*D_NET *88 0.00142035
*CONN
*P mem_wdata[9] O
*I *2323:LO O *D sky130_fd_sc_hd__conb_1
*CAP
1 mem_wdata[9] 0.000310682
2 *2323:LO 0.000310682
3 mem_wdata[10] mem_wdata[9] 0.000391536
4 mem_wdata[8] mem_wdata[9] 0.000407452
*RES
1 *2323:LO mem_wdata[9] 47.9376 
*END

*D_NET *89 0.00167212
*CONN
*P mem_write O
*I *2346:LO O *D sky130_fd_sc_hd__conb_1
*CAP
1 mem_write 0.000593233
2 *2346:LO 0.000593233
3 mem_read mem_write 0.000259669
4 mem_wdata[29] mem_write 0
5 mem_wdata[30] mem_write 2.05341e-05
6 mem_wdata[31] mem_write 0.000173092
7 *78:8 mem_write 3.23593e-05
*RES
1 *2346:LO mem_write 49.3462 
*END

*D_NET *90 0.00173039
*CONN
*P pcRegister[0] O
*I *2347:LO O *D sky130_fd_sc_hd__conb_1
*CAP
1 pcRegister[0] 0.00028246
2 *2347:LO 0.000401858
3 *90:10 0.000684318
4 pcRegister[0] pcRegister[1] 0.000129129
5 *90:10 pcRegister[6] 7.1693e-05
6 *90:10 *118:8 0.000102971
7 *90:10 *666:34 5.79559e-05
*RES
1 *2347:LO *90:10 43.9346 
2 *90:10 pcRegister[0] 9.1312 
*END

*D_NET *91 0.00183765
*CONN
*P pcRegister[10] O
*I *2295:X O *D sky130_fd_sc_hd__clkdlybuf4s25_1
*CAP
1 pcRegister[10] 0.000228506
2 *2295:X 0.000434112
3 *91:10 0.000662618
4 pcRegister[10] pcRegister[11] 0.000130101
5 pcRegister[10] pcRegister[9] 0.000185751
6 *91:10 pcRegister[11] 4.96982e-05
7 *91:10 *543:22 0
8 *91:10 *704:29 0.000146861
*RES
1 *2295:X *91:10 45.4882 
2 *91:10 pcRegister[10] 9.21707 
*END

*D_NET *92 0.00309144
*CONN
*P pcRegister[11] O
*I *2296:X O *D sky130_fd_sc_hd__clkdlybuf4s25_1
*CAP
1 pcRegister[11] 0.000873596
2 *2296:X 8.18661e-05
3 *92:8 0.000955462
4 pcRegister[11] pcRegister[12] 0.000130101
5 pcRegister[11] pcRegister[6] 0.0001276
6 pcRegister[11] pcRegister[7] 0.000341429
7 pcRegister[11] *95:8 4.52204e-05
8 pcRegister[11] *120:10 5.79413e-06
9 pcRegister[11] *121:10 0.000311512
10 pcRegister[11] *490:8 3.90556e-05
11 pcRegister[11] *543:22 0
12 pcRegister[10] pcRegister[11] 0.000130101
13 *91:10 pcRegister[11] 4.96982e-05
*RES
1 *2296:X *92:8 39.0979 
2 *92:8 pcRegister[11] 24.9466 
*END

*D_NET *93 0.00228505
*CONN
*P pcRegister[12] O
*I *2297:X O *D sky130_fd_sc_hd__clkdlybuf4s25_1
*CAP
1 pcRegister[12] 0.000980203
2 *2297:X 0.000980203
3 pcRegister[12] pcRegister[13] 0.000188954
4 pcRegister[12] pcRegister[14] 0
5 pcRegister[12] *679:112 5.58873e-06
6 pcRegister[11] pcRegister[12] 0.000130101
*RES
1 *2297:X pcRegister[12] 49.2368 
*END

*D_NET *94 0.00103737
*CONN
*P pcRegister[13] O
*I *2298:X O *D sky130_fd_sc_hd__clkdlybuf4s25_1
*CAP
1 pcRegister[13] 0.00029584
2 *2298:X 0.00029584
3 pcRegister[13] pcRegister[14] 0.000186957
4 pcRegister[13] *95:8 6.97776e-05
5 pcRegister[12] pcRegister[13] 0.000188954
*RES
1 *2298:X pcRegister[13] 48.8639 
*END

*D_NET *95 0.00199441
*CONN
*P pcRegister[14] O
*I *2299:X O *D sky130_fd_sc_hd__clkdlybuf4s25_1
*CAP
1 pcRegister[14] 0.00025995
2 *2299:X 0.000517485
3 *95:8 0.000777435
4 pcRegister[14] pcRegister[15] 0.000137581
5 pcRegister[14] pcRegister[16] 0
6 *95:8 *96:10 0
7 *95:8 *543:37 0
8 pcRegister[11] *95:8 4.52204e-05
9 pcRegister[12] pcRegister[14] 0
10 pcRegister[13] pcRegister[14] 0.000186957
11 pcRegister[13] *95:8 6.97776e-05
*RES
1 *2299:X *95:8 47.8289 
2 *95:8 pcRegister[14] 9.30293 
*END

*D_NET *96 0.00129663
*CONN
*P pcRegister[15] O
*I *2267:X O *D sky130_fd_sc_hd__clkdlybuf4s25_1
*CAP
1 pcRegister[15] 0.000124612
2 *2267:X 0.000386124
3 *96:10 0.000510736
4 pcRegister[15] pcRegister[16] 0.000137581
5 *96:10 *492:95 0
6 *96:10 *543:37 0
7 pcRegister[14] pcRegister[15] 0.000137581
8 *95:8 *96:10 0
*RES
1 *2267:X *96:10 44.3696 
2 *96:10 pcRegister[15] 8.8736 
*END

*D_NET *97 0.00151626
*CONN
*P pcRegister[16] O
*I *2268:X O *D sky130_fd_sc_hd__clkdlybuf4s25_1
*CAP
1 pcRegister[16] 0.000164061
2 *2268:X 0.000439464
3 *97:10 0.000603525
4 pcRegister[16] pcRegister[17] 0.000164919
5 *97:10 pcRegister[17] 6.71408e-06
6 pcRegister[14] pcRegister[16] 0
7 pcRegister[15] pcRegister[16] 0.000137581
*RES
1 *2268:X *97:10 43.7068 
2 *97:10 pcRegister[16] 9.04533 
*END

*D_NET *98 0.000999998
*CONN
*P pcRegister[17] O
*I *2269:X O *D sky130_fd_sc_hd__clkdlybuf4s25_1
*CAP
1 pcRegister[17] 0.000320704
2 *2269:X 0.000320704
3 pcRegister[17] pcRegister[18] 0.000186957
4 pcRegister[17] *561:49 0
5 pcRegister[16] pcRegister[17] 0.000164919
6 *97:10 pcRegister[17] 6.71408e-06
*RES
1 *2269:X pcRegister[17] 48.8639 
*END

*D_NET *99 0.00098811
*CONN
*P pcRegister[18] O
*I *2270:X O *D sky130_fd_sc_hd__clkdlybuf4s25_1
*CAP
1 pcRegister[18] 0.00035782
2 *2270:X 0.00035782
3 pcRegister[18] pcRegister[19] 8.55133e-05
4 pcRegister[18] pcRegister[20] 0
5 pcRegister[17] pcRegister[18] 0.000186957
*RES
1 *2270:X pcRegister[18] 48.8639 
*END

*D_NET *100 0.00116966
*CONN
*P pcRegister[19] O
*I *2271:X O *D sky130_fd_sc_hd__clkdlybuf4s25_1
*CAP
1 pcRegister[19] 6.68915e-05
2 *2271:X 0.000432427
3 *100:10 0.000499319
4 pcRegister[19] pcRegister[20] 8.55133e-05
5 pcRegister[18] pcRegister[19] 8.55133e-05
*RES
1 *2271:X *100:10 45.5711 
2 *100:10 pcRegister[19] 8.53013 
*END

*D_NET *101 0.00184345
*CONN
*P pcRegister[1] O
*I *2348:LO O *D sky130_fd_sc_hd__conb_1
*CAP
1 pcRegister[1] 0.000291487
2 *2348:LO 0.000236235
3 *101:8 0.000527721
4 pcRegister[1] pcRegister[2] 0.000142011
5 pcRegister[1] *112:14 1.42124e-06
6 *101:8 pcRegister[5] 1.1926e-05
7 *101:8 pcRegister[6] 3.56376e-05
8 *101:8 pcRegister[7] 0.000344866
9 *101:8 *116:10 0
10 *101:8 *483:47 0.000123015
11 pcRegister[0] pcRegister[1] 0.000129129
*RES
1 *2348:LO *101:8 44.6596 
2 *101:8 pcRegister[1] 9.30293 
*END

*D_NET *102 0.00156785
*CONN
*P pcRegister[20] O
*I *2272:X O *D sky130_fd_sc_hd__clkdlybuf4s25_1
*CAP
1 pcRegister[20] 0.000392501
2 *2272:X 0.000314827
3 *102:8 0.000707328
4 pcRegister[20] pcRegister[21] 5.78118e-05
5 pcRegister[20] pcRegister[22] 0
6 *102:8 *2272:A 0
7 *102:8 *104:10 9.86551e-06
8 *102:8 *564:57 0
9 *102:8 *569:41 0
10 pcRegister[18] pcRegister[20] 0
11 pcRegister[19] pcRegister[20] 8.55133e-05
*RES
1 *2272:X *102:8 43.9554 
2 *102:8 pcRegister[20] 9.30293 
*END

*D_NET *103 0.00173399
*CONN
*P pcRegister[21] O
*I *2273:X O *D sky130_fd_sc_hd__clkdlybuf4s25_1
*CAP
1 pcRegister[21] 0.000482992
2 *2273:X 0.000334993
3 *103:8 0.000817984
4 pcRegister[21] pcRegister[22] 4.02072e-05
5 pcRegister[20] pcRegister[21] 5.78118e-05
*RES
1 *2273:X *103:8 43.3857 
2 *103:8 pcRegister[21] 17.1309 
*END

*D_NET *104 0.00189368
*CONN
*P pcRegister[22] O
*I *2274:X O *D sky130_fd_sc_hd__clkdlybuf4s25_1
*CAP
1 pcRegister[22] 0.000386893
2 *2274:X 0.000335361
3 *104:10 0.000722254
4 pcRegister[22] pcRegister[23] 0.000143012
5 *104:10 *1910:A 5.79559e-05
6 *104:10 *105:8 9.86551e-06
7 *104:10 *273:10 7.51785e-05
8 *104:10 *569:41 0.000113086
9 pcRegister[20] pcRegister[22] 0
10 pcRegister[21] pcRegister[22] 4.02072e-05
11 *102:8 *104:10 9.86551e-06
*RES
1 *2274:X *104:10 44.1418 
2 *104:10 pcRegister[22] 9.47467 
*END

*D_NET *105 0.0018689
*CONN
*P pcRegister[23] O
*I *2275:X O *D sky130_fd_sc_hd__clkdlybuf4s25_1
*CAP
1 pcRegister[23] 0.00029845
2 *2275:X 0.000360763
3 *105:8 0.000659213
4 pcRegister[23] pcRegister[24] 0.000109186
5 *105:8 pcRegister[24] 0
6 *105:8 *1910:B 1.3112e-05
7 *105:8 *108:10 9.86551e-06
8 *105:8 *520:18 0.000265431
9 *105:8 *569:41 0
10 pcRegister[22] pcRegister[23] 0.000143012
11 *104:10 *105:8 9.86551e-06
*RES
1 *2275:X *105:8 46.7725 
2 *105:8 pcRegister[23] 9.30293 
*END

*D_NET *106 0.00230698
*CONN
*P pcRegister[24] O
*I *2276:X O *D sky130_fd_sc_hd__clkdlybuf4s25_1
*CAP
1 pcRegister[24] 0.000841636
2 *2276:X 0.000230023
3 *106:8 0.00107166
4 pcRegister[24] pcRegister[25] 5.44766e-05
5 pcRegister[24] pcRegister[26] 0
6 pcRegister[24] pcRegister[28] 0
7 pcRegister[24] *108:10 0
8 pcRegister[24] *582:12 0
9 *106:8 *107:8 0
10 pcRegister[23] pcRegister[24] 0.000109186
11 *105:8 pcRegister[24] 0
*RES
1 *2276:X *106:8 41.48 
2 *106:8 pcRegister[24] 23.1087 
*END

*D_NET *107 0.00227729
*CONN
*P pcRegister[25] O
*I *2278:X O *D sky130_fd_sc_hd__clkdlybuf4s25_1
*CAP
1 pcRegister[25] 0.000759262
2 *2278:X 0.000324909
3 *107:8 0.00108417
4 pcRegister[25] pcRegister[26] 5.44766e-05
5 pcRegister[24] pcRegister[25] 5.44766e-05
6 *106:8 *107:8 0
*RES
1 *2278:X *107:8 43.3857 
2 *107:8 pcRegister[25] 22.7652 
*END

*D_NET *108 0.00139369
*CONN
*P pcRegister[26] O
*I *2279:X O *D sky130_fd_sc_hd__clkdlybuf4s25_1
*CAP
1 pcRegister[26] 0.000331793
2 *2279:X 0.000109826
3 *108:10 0.000441619
4 pcRegister[26] pcRegister[27] 0.000211755
5 *108:10 *1910:B 0.000234357
6 pcRegister[24] pcRegister[26] 0
7 pcRegister[24] *108:10 0
8 pcRegister[25] pcRegister[26] 5.44766e-05
9 *105:8 *108:10 9.86551e-06
*RES
1 *2279:X *108:10 49.1382 
2 *108:10 pcRegister[26] 1.47467 
*END

*D_NET *109 0.00338129
*CONN
*P pcRegister[27] O
*I *2280:X O *D sky130_fd_sc_hd__clkdlybuf4s25_1
*CAP
1 pcRegister[27] 0.000641204
2 *2280:X 0.000483418
3 *109:10 0.00112462
4 pcRegister[27] pcRegister[28] 0.000211956
5 pcRegister[27] pcRegister[29] 0
6 *109:10 pcRegister[28] 0
7 *109:10 pcRegister[29] 9.86551e-06
8 *109:10 *2278:A 0.000355345
9 *109:10 *277:18 0
10 *109:10 *323:16 0.000269173
11 *109:10 *614:25 7.39525e-05
12 pcRegister[26] pcRegister[27] 0.000211755
*RES
1 *2280:X *109:10 46.9589 
2 *109:10 pcRegister[27] 10.1616 
*END

*D_NET *110 0.00291781
*CONN
*P pcRegister[28] O
*I *2281:X O *D sky130_fd_sc_hd__clkdlybuf4s25_1
*CAP
1 pcRegister[28] 0.000501928
2 *2281:X 0.000301019
3 *110:8 0.000802947
4 pcRegister[28] pcRegister[29] 0.000211956
5 pcRegister[28] *113:12 2.05503e-05
6 pcRegister[28] *277:18 0.000131273
7 pcRegister[28] *323:10 0.000109739
8 pcRegister[28] *582:12 0.000169866
9 *110:8 *2278:A 0.000103405
10 *110:8 *113:12 0.000271545
11 *110:8 *660:14 8.16277e-05
12 pcRegister[24] pcRegister[28] 0
13 pcRegister[27] pcRegister[28] 0.000211956
14 *109:10 pcRegister[28] 0
*RES
1 *2281:X *110:8 44.815 
2 *110:8 pcRegister[28] 15.7822 
*END

*D_NET *111 0.00170306
*CONN
*P pcRegister[29] O
*I *2282:X O *D sky130_fd_sc_hd__clkdlybuf4s25_1
*CAP
1 pcRegister[29] 0.000640249
2 *2282:X 0.000640249
3 pcRegister[29] pcRegister[30] 0.000200736
4 pcRegister[29] pcRegister[31] 0
5 pcRegister[27] pcRegister[29] 0
6 pcRegister[28] pcRegister[29] 0.000211956
7 *109:10 pcRegister[29] 9.86551e-06
*RES
1 *2282:X pcRegister[29] 48.3109 
*END

*D_NET *112 0.00342945
*CONN
*P pcRegister[2] O
*I *2283:X O *D sky130_fd_sc_hd__clkdlybuf4s25_1
*CAP
1 pcRegister[2] 0.00023996
2 *2283:X 0.001237
3 *112:14 0.00147696
4 pcRegister[2] pcRegister[3] 0.000183053
5 *112:14 pcRegister[3] 0.000149057
6 pcRegister[1] pcRegister[2] 0.000142011
7 pcRegister[1] *112:14 1.42124e-06
*RES
1 *2283:X *112:14 48.8355 
2 *112:14 pcRegister[2] 1.26 
*END

*D_NET *113 0.00190162
*CONN
*P pcRegister[30] O
*I *2284:X O *D sky130_fd_sc_hd__clkdlybuf4s25_1
*CAP
1 pcRegister[30] 0.000333688
2 *2284:X 0.000258552
3 *113:12 0.000592241
4 pcRegister[30] pcRegister[31] 0.00020376
5 *113:12 *582:12 2.05503e-05
6 pcRegister[28] *113:12 2.05503e-05
7 pcRegister[29] pcRegister[30] 0.000200736
8 *110:8 *113:12 0.000271545
*RES
1 *2284:X *113:12 49.8011 
2 *113:12 pcRegister[30] 1.3888 
*END

*D_NET *114 0.00334809
*CONN
*P pcRegister[31] O
*I *2285:X O *D sky130_fd_sc_hd__clkdlybuf4s25_1
*CAP
1 pcRegister[31] 0.000746757
2 *2285:X 0.000617135
3 *114:10 0.00136389
4 pcRegister[31] *528:32 3.18407e-06
5 *114:10 *169:91 0.000168042
6 *114:10 *277:18 0
7 *114:10 *279:20 5.61255e-06
8 *114:10 *547:71 2.64616e-05
9 *114:10 *658:14 0.000209092
10 *114:10 *660:14 4.15283e-06
11 pcRegister[29] pcRegister[31] 0
12 pcRegister[30] pcRegister[31] 0.00020376
*RES
1 *2285:X *114:10 47.4768 
2 *114:10 pcRegister[31] 10.1616 
*END

*D_NET *115 0.00246447
*CONN
*P pcRegister[3] O
*I *2286:X O *D sky130_fd_sc_hd__clkdlybuf4s25_1
*CAP
1 pcRegister[3] 0.000591033
2 *2286:X 0.000203336
3 *115:12 0.000794369
4 pcRegister[3] pcRegister[4] 0.000236039
5 *115:12 *2291:A 2.26497e-05
6 *115:12 *483:39 0.000274389
7 *115:12 *667:18 1.05441e-05
8 pcRegister[2] pcRegister[3] 0.000183053
9 *112:14 pcRegister[3] 0.000149057
*RES
1 *2286:X *115:12 49.3246 
2 *115:12 pcRegister[3] 2.1616 
*END

*D_NET *116 0.00289746
*CONN
*P pcRegister[4] O
*I *2287:X O *D sky130_fd_sc_hd__clkdlybuf4s25_1
*CAP
1 pcRegister[4] 0.000348788
2 *2287:X 0.000567094
3 *116:10 0.000915883
4 pcRegister[4] pcRegister[5] 0.000174733
5 *116:10 pcRegister[7] 0
6 *116:10 *2291:A 0
7 *116:10 *483:47 0.000558062
8 *116:10 *484:6 9.03964e-06
9 *116:10 *488:10 2.98663e-05
10 *116:10 *667:18 0
11 *116:10 *668:24 0
12 *116:10 *678:86 5.79559e-05
13 pcRegister[3] pcRegister[4] 0.000236039
14 *101:8 *116:10 0
*RES
1 *2287:X *116:10 49.9832 
2 *116:10 pcRegister[4] 9.6464 
*END

*D_NET *117 0.00328496
*CONN
*P pcRegister[5] O
*I *2289:X O *D sky130_fd_sc_hd__clkdlybuf4s25_1
*CAP
1 pcRegister[5] 0.000406559
2 *2289:X 0.000295156
3 *117:8 0.000701715
4 pcRegister[5] pcRegister[6] 0.000899737
5 pcRegister[5] pcRegister[7] 0.000707132
6 *117:8 *2291:A 3.22051e-05
7 *117:8 *119:8 5.5792e-05
8 pcRegister[4] pcRegister[5] 0.000174733
9 *101:8 pcRegister[5] 1.1926e-05
*RES
1 *2289:X *117:8 42.9093 
2 *117:8 pcRegister[5] 18.9601 
*END

*D_NET *118 0.00340554
*CONN
*P pcRegister[6] O
*I *2290:X O *D sky130_fd_sc_hd__clkdlybuf4s25_1
*CAP
1 pcRegister[6] 0.000918019
2 *2290:X 6.19399e-05
3 *118:8 0.000979958
4 pcRegister[6] pcRegister[7] 0.000207984
5 pcRegister[6] *483:47 0
6 pcRegister[11] pcRegister[6] 0.0001276
7 pcRegister[5] pcRegister[6] 0.000899737
8 *90:10 pcRegister[6] 7.1693e-05
9 *90:10 *118:8 0.000102971
10 *101:8 pcRegister[6] 3.56376e-05
*RES
1 *2290:X *118:8 39.5743 
2 *118:8 pcRegister[6] 27.3257 
*END

*D_NET *119 0.00347709
*CONN
*P pcRegister[7] O
*I *2291:X O *D sky130_fd_sc_hd__clkdlybuf4s25_1
*CAP
1 pcRegister[7] 0.000604527
2 *2291:X 4.58657e-05
3 *119:8 0.000650393
4 pcRegister[7] pcRegister[8] 0.000185751
5 pcRegister[7] *488:10 3.81467e-05
6 pcRegister[7] *490:8 0.000295204
7 pcRegister[11] pcRegister[7] 0.000341429
8 pcRegister[5] pcRegister[7] 0.000707132
9 pcRegister[6] pcRegister[7] 0.000207984
10 *101:8 pcRegister[7] 0.000344866
11 *116:10 pcRegister[7] 0
12 *117:8 *119:8 5.5792e-05
*RES
1 *2291:X *119:8 38.6214 
2 *119:8 pcRegister[7] 24.3281 
*END

*D_NET *120 0.00283269
*CONN
*P pcRegister[8] O
*I *2292:X O *D sky130_fd_sc_hd__clkdlybuf4s25_1
*CAP
1 pcRegister[8] 0.000221486
2 *2292:X 0.000628556
3 *120:10 0.000850042
4 pcRegister[8] pcRegister[9] 0.000185751
5 *120:10 *1864:B 2.95125e-05
6 *120:10 *1872:A 0.000454438
7 *120:10 *121:10 0.000221554
8 *120:10 *490:8 4.9808e-05
9 *120:10 *543:22 0
10 pcRegister[11] *120:10 5.79413e-06
11 pcRegister[7] pcRegister[8] 0.000185751
*RES
1 *2292:X *120:10 48.9061 
2 *120:10 pcRegister[8] 9.30293 
*END

*D_NET *121 0.0019394
*CONN
*P pcRegister[9] O
*I *2293:X O *D sky130_fd_sc_hd__clkdlybuf4s25_1
*CAP
1 pcRegister[9] 0.000192869
2 *2293:X 0.000275912
3 *121:10 0.000468781
4 *121:10 *490:8 4.05615e-05
5 *121:10 *640:10 5.67058e-05
6 pcRegister[10] pcRegister[9] 0.000185751
7 pcRegister[11] *121:10 0.000311512
8 pcRegister[8] pcRegister[9] 0.000185751
9 *120:10 *121:10 0.000221554
*RES
1 *2293:X *121:10 44.7218 
2 *121:10 pcRegister[9] 9.21707 
*END

*D_NET *122 0.00522152
*CONN
*P red[0] O
*I *2349:LO O *D sky130_fd_sc_hd__conb_1
*CAP
1 red[0] 0.00233604
2 *2349:LO 0.0001821
3 *122:12 0.00251814
4 red[0] red[1] 0.000115049
5 red[0] red[2] 0
6 red[0] *169:18 0
7 *122:12 *2279:A 2.26406e-05
8 *122:12 *124:12 2.49183e-05
9 *122:12 *274:20 0
10 *122:12 *670:29 2.26406e-05
*RES
1 *2349:LO *122:12 46.6776 
2 *122:12 red[0] 13.3433 
*END

*D_NET *123 0.00538215
*CONN
*P red[1] O
*I *2350:LO O *D sky130_fd_sc_hd__conb_1
*CAP
1 red[1] 0.00160454
2 *2350:LO 0.000615412
3 *123:10 0.00221995
4 red[1] red[2] 0.000113505
5 red[1] *528:32 0.000268929
6 red[1] *651:18 0.000385738
7 *123:10 *2044:D 1.04756e-05
8 *123:10 *169:91 3.87221e-06
9 *123:10 *658:6 2.30639e-05
10 *123:10 *658:21 2.16227e-05
11 red[0] red[1] 0.000115049
*RES
1 *2350:LO *123:10 45.6125 
2 *123:10 red[1] 20.5276 
*END

*D_NET *124 0.00626428
*CONN
*P red[2] O
*I *2351:LO O *D sky130_fd_sc_hd__conb_1
*CAP
1 red[2] 0.00203006
2 *2351:LO 0.000551381
3 *124:12 0.00258144
4 red[2] red[3] 7.90401e-05
5 red[2] red[4] 0
6 red[2] *169:18 2.28446e-05
7 *124:12 *1914:B1 0.00039245
8 *124:12 *169:18 0.000278885
9 *124:12 *521:31 0.000124448
10 *124:12 *525:12 6.53043e-05
11 *124:12 *647:8 0
12 *124:12 *687:63 0
13 red[0] red[2] 0
14 red[1] red[2] 0.000113505
15 *122:12 *124:12 2.49183e-05
*RES
1 *2351:LO *124:12 49.1166 
2 *124:12 red[2] 12.7087 
*END

*D_NET *125 0.0052877
*CONN
*P red[3] O
*I *2352:LO O *D sky130_fd_sc_hd__conb_1
*CAP
1 red[3] 0.00229801
2 *2352:LO 0.000100677
3 *125:10 0.00239868
4 red[3] red[4] 7.74037e-05
5 red[3] *127:12 0.000264951
6 red[3] *279:20 0
7 *125:10 red[6] 0
8 red[2] red[3] 7.90401e-05
9 *16:12 red[3] 4.28826e-05
10 *17:12 red[3] 2.047e-05
11 *17:12 *125:10 5.58152e-06
*RES
1 *2352:LO *125:10 47.7296 
2 *125:10 red[3] 14.5212 
*END

*D_NET *126 0.00551712
*CONN
*P red[4] O
*I *2353:LO O *D sky130_fd_sc_hd__conb_1
*CAP
1 red[4] 0.00251238
2 *2353:LO 0.000139197
3 *126:12 0.00265158
4 red[4] red[5] 8.43931e-05
5 *126:12 *274:20 5.21655e-05
6 *126:12 *525:12 0
7 *126:12 *648:8 0
8 *126:12 *688:68 0
9 red[2] red[4] 0
10 red[3] red[4] 7.74037e-05
*RES
1 *2353:LO *126:12 46.6776 
2 *126:12 red[4] 13.978 
*END

*D_NET *127 0.00265843
*CONN
*P red[5] O
*I *2354:LO O *D sky130_fd_sc_hd__conb_1
*CAP
1 red[5] 0.000804826
2 *2354:LO 0.000319394
3 *127:12 0.00112422
4 *127:12 *279:20 6.06471e-05
5 red[3] *127:12 0.000264951
6 red[4] red[5] 8.43931e-05
*RES
1 *2354:LO *127:12 47.3645 
2 *127:12 red[5] 10.2969 
*END

*D_NET *128 0.0030804
*CONN
*P red[6] O
*I *2355:LO O *D sky130_fd_sc_hd__conb_1
*CAP
1 red[6] 0.00136125
2 *2355:LO 0
3 *128:6 0.00136125
4 red[6] red[7] 0.000131999
5 green[1] red[6] 0.000220315
6 *16:12 red[6] 5.58152e-06
7 *125:10 red[6] 0
*RES
1 *2355:LO *128:6 38 
2 *128:6 red[6] 30.2931 
*END

*D_NET *129 0.00153608
*CONN
*P red[7] O
*I *2356:LO O *D sky130_fd_sc_hd__conb_1
*CAP
1 red[7] 0.00070204
2 *2356:LO 0
3 *129:6 0.00070204
4 red[6] red[7] 0.000131999
*RES
1 *2356:LO *129:6 38 
2 *129:6 red[7] 29.2689 
*END

*D_NET *130 0.000976871
*CONN
*P reset I
*I *2253:A I *D sky130_fd_sc_hd__clkdlybuf4s25_1
*CAP
1 reset 0.000401919
2 *2253:A 0
3 *130:13 0.000401919
4 mem_addr[0] *130:13 8.65161e-05
5 *13:8 *130:13 8.65161e-05
*RES
1 reset *130:13 30.216 
2 *130:13 *2253:A 23 
*END

*D_NET *131 0.00189319
*CONN
*I *2175:A I *D sky130_fd_sc_hd__dlygate4sd3_1
*I *1843:Y O *D sky130_fd_sc_hd__a21boi_2
*CAP
1 *2175:A 7.30866e-05
2 *1843:Y 0.000333022
3 *131:10 0.000406109
4 *2175:A *2056:CLK 0.000138859
5 *2175:A *729:10 2.64616e-05
6 *131:10 *1843:A2 3.28708e-05
7 *131:10 *183:10 2.75733e-06
8 *131:10 *552:62 0
9 *131:10 *556:80 0.00026808
10 *131:10 *716:6 0.000139352
11 *131:10 *716:8 0.000178517
12 *131:10 *716:10 5.3304e-05
13 *131:10 *729:10 0
14 *131:10 *729:36 0.000240774
*RES
1 *1843:Y *131:10 46.2236 
2 *131:10 *2175:A 39.5743 
*END

*D_NET *132 0.00212321
*CONN
*I *2170:A I *D sky130_fd_sc_hd__dlygate4sd3_1
*I *1842:Y O *D sky130_fd_sc_hd__a21oi_2
*CAP
1 *2170:A 0
2 *1842:Y 0.000612095
3 *132:10 0.000612095
4 *132:10 *1605:A 0.000127821
5 *132:10 *1640:A1 7.15126e-05
6 *132:10 *1643:B1 4.27353e-05
7 *132:10 *1779:B1_N 0.000342403
8 *132:10 *145:10 7.03663e-05
9 *132:10 *316:10 2.12147e-05
10 *132:10 *346:21 2.12347e-06
11 *132:10 *346:47 6.8886e-05
12 *132:10 *347:10 0.000138727
13 *132:10 *538:65 0
14 *132:10 *538:76 0
15 *132:10 *707:21 1.32314e-05
*RES
1 *1842:Y *132:10 49.8693 
2 *132:10 *2170:A 38 
*END

*D_NET *133 0.00218605
*CONN
*I *2183:A I *D sky130_fd_sc_hd__dlygate4sd3_1
*I *1831:A I *D sky130_fd_sc_hd__nor2_2
*I *1774:Y O *D sky130_fd_sc_hd__a21boi_2
*CAP
1 *2183:A 0.000251696
2 *1831:A 0
3 *1774:Y 0
4 *133:16 0.00036682
5 *133:4 0.000618516
6 *2183:A *1712:A1 1.14762e-05
7 *2183:A *1774:A2 0.000137651
8 *2183:A *579:12 8.85483e-05
9 *133:16 *1712:A1 1.39431e-05
10 *133:16 *1719:B 6.7911e-05
11 *133:16 *1831:B 6.62761e-05
12 *133:16 *413:31 0.000342125
13 *133:16 *471:8 0.000221084
14 *133:16 *579:18 0
*RES
1 *1774:Y *133:4 23 
2 *133:4 *133:16 38.3686 
3 *133:16 *1831:A 23 
4 *133:4 *2183:A 27.4536 
*END

*D_NET *134 0.000734847
*CONN
*I *2090:D I *D sky130_fd_sc_hd__dfrtp_2
*I *1841:X O *D sky130_fd_sc_hd__and2_2
*CAP
1 *2090:D 4.10037e-05
2 *1841:X 0.000244325
3 *134:10 0.000285329
4 *134:10 *2055:CLK 6.42902e-05
5 *134:10 *186:8 0
6 *134:10 *551:78 9.98995e-05
*RES
1 *1841:X *134:10 42.9921 
2 *134:10 *2090:D 38.6214 
*END

*D_NET *135 0.000473912
*CONN
*I *2094:D I *D sky130_fd_sc_hd__dfstp_2
*I *1797:X O *D sky130_fd_sc_hd__a211o_2
*CAP
1 *2094:D 0
2 *1797:X 0.000104186
3 *135:10 0.000104186
4 *135:10 *1796:A 5.3304e-05
5 *135:10 *426:22 7.03663e-05
6 *135:10 *692:78 0.000141869
*RES
1 *1797:X *135:10 40.5271 
2 *135:10 *2094:D 38 
*END

*D_NET *136 0.000529073
*CONN
*I *2096:D I *D sky130_fd_sc_hd__dfrtp_2
*I *1795:X O *D sky130_fd_sc_hd__a21bo_2
*CAP
1 *2096:D 0
2 *1795:X 0.000191951
3 *136:10 0.000191951
4 *136:10 *1985:A 0
5 *136:10 *2096:CLK 0
6 *136:10 *2162:A 0.000145171
*RES
1 *1795:X *136:10 41.1279 
2 *136:10 *2096:D 38 
*END

*D_NET *137 0.000249996
*CONN
*I *2098:D I *D sky130_fd_sc_hd__dfrtp_2
*I *1794:X O *D sky130_fd_sc_hd__a211o_2
*CAP
1 *2098:D 0
2 *1794:X 4.88916e-05
3 *137:8 4.88916e-05
4 *137:8 *556:88 0.000114074
5 *137:8 *694:27 3.81391e-05
*RES
1 *1794:X *137:8 39.5536 
2 *137:8 *2098:D 38 
*END

*D_NET *138 0.000966012
*CONN
*I *2092:D I *D sky130_fd_sc_hd__dfrtp_2
*I *1792:X O *D sky130_fd_sc_hd__and2_2
*CAP
1 *2092:D 0
2 *1792:X 0.000260529
3 *138:10 0.000260529
4 *138:10 *348:12 0.000177259
5 *138:10 *421:42 0.000170909
6 *138:10 *694:8 9.67842e-05
7 *138:10 *701:57 0
*RES
1 *1792:X *138:10 43.8207 
2 *138:10 *2092:D 38 
*END

*D_NET *139 0.000250946
*CONN
*I *2215:A I *D sky130_fd_sc_hd__dlygate4sd3_1
*I *1791:X O *D sky130_fd_sc_hd__a21o_2
*CAP
1 *2215:A 6.44624e-05
2 *1791:X 6.44624e-05
3 *2215:A *1791:B1 0.00010018
4 *2215:A *1793:B 2.18409e-05
*RES
1 *1791:X *2215:A 47.5743 
*END

*D_NET *140 0.001422
*CONN
*I *2087:D I *D sky130_fd_sc_hd__dfstp_2
*I *1790:X O *D sky130_fd_sc_hd__or3b_2
*CAP
1 *2087:D 0
2 *1790:X 0.000378633
3 *140:10 0.000378633
4 *140:10 *1610:A 0.000294888
5 *140:10 *1790:A 9.08408e-05
6 *140:10 *415:10 8.57577e-05
7 *140:10 *544:77 0.000109452
8 *140:10 *731:12 8.37971e-05
*RES
1 *1790:X *140:10 46.0579 
2 *140:10 *2087:D 38 
*END

*D_NET *141 0.000965899
*CONN
*I *2089:D I *D sky130_fd_sc_hd__dfrtp_2
*I *1789:Y O *D sky130_fd_sc_hd__o21bai_2
*CAP
1 *2089:D 4.27777e-05
2 *1789:Y 0.000265914
3 *141:10 0.000308692
4 *141:10 *405:8 5.3304e-05
5 *141:10 *413:41 2.93431e-05
6 *141:10 *454:20 0.000110024
7 *141:10 *733:20 0.000155844
*RES
1 *1789:Y *141:10 43.6964 
2 *141:10 *2089:D 38.6214 
*END

*D_NET *142 0.000999001
*CONN
*I *2091:D I *D sky130_fd_sc_hd__dfrtp_2
*I *1788:X O *D sky130_fd_sc_hd__a221o_2
*CAP
1 *2091:D 0
2 *1788:X 0.000323413
3 *142:10 0.000323413
4 *142:10 *1788:B1 0.000143163
5 *142:10 *445:18 0.000109352
6 *142:10 *454:20 9.96602e-05
7 *142:10 *535:43 0
*RES
1 *1788:X *142:10 43.945 
2 *142:10 *2091:D 38 
*END

*D_NET *143 0.000552732
*CONN
*I *2085:D I *D sky130_fd_sc_hd__dfrtp_2
*I *1781:X O *D sky130_fd_sc_hd__and2b_2
*CAP
1 *2085:D 0
2 *1781:X 0.000139336
3 *143:10 0.000139336
4 *143:10 *1625:B 4.67488e-05
5 *143:10 *339:10 0.000112535
6 *143:10 *555:80 0.000114776
*RES
1 *1781:X *143:10 40.6514 
2 *143:10 *2085:D 38 
*END

*D_NET *144 0.000947886
*CONN
*I *2086:D I *D sky130_fd_sc_hd__dfrtp_2
*I *1780:X O *D sky130_fd_sc_hd__or2_2
*CAP
1 *2086:D 0
2 *1780:X 0.000361667
3 *144:10 0.000361667
4 *144:10 *1780:A 3.53115e-05
5 *144:10 *1780:B 5.50049e-05
6 *144:10 *2086:CLK 5.26101e-05
7 *144:10 *2242:A 8.16253e-05
*RES
1 *1780:X *144:10 44.6907 
2 *144:10 *2086:D 38 
*END

*D_NET *145 0.000636712
*CONN
*I *2015:D I *D sky130_fd_sc_hd__dfstp_2
*I *1779:X O *D sky130_fd_sc_hd__a21bo_2
*CAP
1 *2015:D 0
2 *1779:X 0.000247449
3 *145:10 0.000247449
4 *145:10 *1779:B1_N 2.93845e-05
5 *145:10 *2016:CLK 4.2062e-05
6 *145:10 *538:65 0
7 *145:10 *538:76 0
8 *132:10 *145:10 7.03663e-05
*RES
1 *1779:X *145:10 41.9564 
2 *145:10 *2015:D 38 
*END

*D_NET *146 0.000370595
*CONN
*I *2016:D I *D sky130_fd_sc_hd__dfrtp_2
*I *1778:X O *D sky130_fd_sc_hd__a22o_2
*CAP
1 *2016:D 0
2 *1778:X 0.000185298
3 *146:8 0.000185298
4 *146:8 *701:74 0
5 *146:8 *776:67 0
*RES
1 *1778:X *146:8 40.9621 
2 *146:8 *2016:D 38 
*END

*D_NET *147 0.000879658
*CONN
*I *2013:D I *D sky130_fd_sc_hd__dfstp_2
*I *1777:X O *D sky130_fd_sc_hd__a21o_2
*CAP
1 *2013:D 0
2 *1777:X 0.000348147
3 *147:10 0.000348147
4 *147:10 *341:12 3.82058e-06
5 *147:10 *341:27 2.92911e-06
6 *147:10 *778:10 1.85903e-05
7 *147:10 *778:25 5.56356e-05
8 *147:10 *778:36 0.000102389
*RES
1 *1777:X *147:10 42.9093 
2 *147:10 *2013:D 38 
*END

*D_NET *148 0.000296846
*CONN
*I *2014:D I *D sky130_fd_sc_hd__dfrtp_2
*I *1776:X O *D sky130_fd_sc_hd__or2_2
*CAP
1 *2014:D 4.05371e-05
2 *1776:X 0.000107886
3 *148:8 0.000148423
4 *148:8 *2029:CLK 0
*RES
1 *1776:X *148:8 39.9057 
2 *148:8 *2014:D 38.6214 
*END

*D_NET *149 0.000439874
*CONN
*I *2105:D I *D sky130_fd_sc_hd__dfrtp_2
*I *1618:Y O *D sky130_fd_sc_hd__inv_2
*CAP
1 *2105:D 0
2 *1618:Y 0.000185678
3 *149:10 0.000185678
4 *149:10 *1618:A 3.7122e-06
5 *149:10 *457:10 0
6 *149:10 *535:351 0
7 *149:10 *548:70 6.48049e-05
*RES
1 *1618:Y *149:10 41.2314 
2 *149:10 *2105:D 38 
*END

*D_NET *150 0.00145451
*CONN
*I *2115:D I *D sky130_fd_sc_hd__dfrtp_2
*I *1820:X O *D sky130_fd_sc_hd__xor2_2
*CAP
1 *2115:D 3.61248e-05
2 *1820:X 0.000287764
3 *150:10 0.000323889
4 *2115:D *540:14 2.95526e-05
5 *150:10 *2189:A 0.000316278
6 *150:10 *535:233 1.98991e-05
7 *150:10 *540:14 0.000221513
8 *150:10 *587:10 2.64616e-05
9 *150:10 *696:34 0.000193024
*RES
1 *1820:X *150:10 45.6229 
2 *150:10 *2115:D 38.6214 
*END

*D_NET *151 0.000720231
*CONN
*I *2116:D I *D sky130_fd_sc_hd__dfrtp_2
*I *1823:Y O *D sky130_fd_sc_hd__nor2_2
*CAP
1 *2116:D 0
2 *1823:Y 0.000158845
3 *151:10 0.000158845
4 *151:10 *1821:A 6.67059e-05
5 *151:10 *1821:B 0.000223698
6 *151:10 *1823:A 5.70419e-05
7 *151:10 *539:35 5.50955e-05
*RES
1 *1823:Y *151:10 42.785 
2 *151:10 *2116:D 38 
*END

*D_NET *152 0.000768635
*CONN
*I *2117:D I *D sky130_fd_sc_hd__dfrtp_2
*I *1824:X O *D sky130_fd_sc_hd__xor2_2
*CAP
1 *2117:D 0.000159602
2 *1824:X 8.45102e-05
3 *152:8 0.000244112
4 *152:8 *244:10 0.000192185
5 *152:8 *745:25 8.82249e-05
*RES
1 *1824:X *152:8 40.61 
2 *152:8 *2117:D 40.5271 
*END

*D_NET *153 0.000447851
*CONN
*I *2118:D I *D sky130_fd_sc_hd__dfrtp_2
*I *1827:Y O *D sky130_fd_sc_hd__nor2_2
*CAP
1 *2118:D 0
2 *1827:Y 5.64126e-05
3 *153:8 5.64126e-05
4 *153:8 *468:14 0.000166281
5 *153:8 *685:26 0.000168744
*RES
1 *1827:Y *153:8 40.2579 
2 *153:8 *2118:D 38 
*END

*D_NET *154 0.000669923
*CONN
*I *2119:D I *D sky130_fd_sc_hd__dfrtp_2
*I *1829:X O *D sky130_fd_sc_hd__xor2_2
*CAP
1 *2119:D 2.77218e-05
2 *1829:X 0.000105698
3 *154:8 0.00013342
4 *2119:D *2118:CLK 5.3304e-05
5 *2119:D *745:39 2.64616e-05
6 *154:8 *548:12 7.68956e-05
7 *154:8 *688:56 0.000246423
*RES
1 *1829:X *154:8 41.3143 
2 *154:8 *2119:D 38.6214 
*END

*D_NET *155 0.000394883
*CONN
*I *2120:D I *D sky130_fd_sc_hd__dfrtp_2
*I *1830:Y O *D sky130_fd_sc_hd__xnor2_2
*CAP
1 *2120:D 0
2 *1830:Y 6.94434e-05
3 *155:8 6.94434e-05
4 *155:8 *548:58 5.31311e-05
5 *155:8 *688:56 0.000198447
6 *155:8 *747:16 4.41821e-06
*RES
1 *1830:Y *155:8 40.61 
2 *155:8 *2120:D 38 
*END

*D_NET *156 0.000437945
*CONN
*I *2106:D I *D sky130_fd_sc_hd__dfrtp_2
*I *1802:X O *D sky130_fd_sc_hd__xor2_2
*CAP
1 *2106:D 4.54044e-05
2 *1802:X 5.42001e-05
3 *156:8 9.96044e-05
4 *2106:D *2192:A 2.64616e-05
5 *156:8 *522:16 0.000141888
6 *156:8 *740:44 7.03869e-05
*RES
1 *1802:X *156:8 39.9057 
2 *156:8 *2106:D 38.6214 
*END

*D_NET *157 0.00136672
*CONN
*I *2107:D I *D sky130_fd_sc_hd__dfrtp_2
*I *1804:Y O *D sky130_fd_sc_hd__nor2_2
*CAP
1 *2107:D 4.78307e-05
2 *1804:Y 0.000319332
3 *157:10 0.000367163
4 *2107:D *549:16 6.17437e-06
5 *157:10 *1651:C 5.70006e-05
6 *157:10 *1651:D 0.000102389
7 *157:10 *549:12 6.25829e-05
8 *157:10 *549:40 0.000169683
9 *157:10 *622:8 6.73714e-05
10 *157:10 *740:61 5.50106e-05
11 *157:10 *747:25 0.00011218
*RES
1 *1804:Y *157:10 45.8714 
2 *157:10 *2107:D 38.6214 
*END

*D_NET *158 0.00124284
*CONN
*I *2108:D I *D sky130_fd_sc_hd__dfrtp_2
*I *1805:X O *D sky130_fd_sc_hd__xor2_2
*CAP
1 *2108:D 0.000408552
2 *1805:X 9.79147e-05
3 *158:8 0.000506466
4 *2108:D *2108:RESET_B 2.62559e-05
5 *2108:D *323:16 6.17437e-06
6 *158:8 *670:70 0.000197479
7 *158:8 *685:72 0
*RES
1 *1805:X *158:8 40.61 
2 *158:8 *2108:D 44.815 
*END

*D_NET *159 0.000506687
*CONN
*I *2109:D I *D sky130_fd_sc_hd__dfrtp_2
*I *1806:Y O *D sky130_fd_sc_hd__xnor2_2
*CAP
1 *2109:D 3.42455e-05
2 *1806:Y 0.000119084
3 *159:10 0.00015333
4 *2109:D *2109:CLK 6.17437e-06
5 *2109:D *749:8 5.3304e-05
6 *159:10 *1651:C 2.29192e-05
7 *159:10 *549:40 0.000110913
8 *159:10 *749:21 6.7177e-06
*RES
1 *1806:Y *159:10 40.175 
2 *159:10 *2109:D 38.6214 
*END

*D_NET *160 0.00101162
*CONN
*I *2110:D I *D sky130_fd_sc_hd__dfrtp_2
*I *1809:Y O *D sky130_fd_sc_hd__nor3_2
*CAP
1 *2110:D 0
2 *1809:Y 0.000197698
3 *160:10 0.000197698
4 *160:10 *530:10 0.000233367
5 *160:10 *549:68 0.000191429
6 *160:10 *687:70 0.000191429
*RES
1 *1809:Y *160:10 43.6136 
2 *160:10 *2110:D 38 
*END

*D_NET *161 0.000455435
*CONN
*I *2111:D I *D sky130_fd_sc_hd__dfrtp_2
*I *1812:X O *D sky130_fd_sc_hd__and2_2
*CAP
1 *2111:D 0
2 *1812:X 0.00015917
3 *161:10 0.00015917
4 *161:10 *162:10 3.6608e-05
5 *161:10 *632:10 0.000100486
*RES
1 *1812:X *161:10 40.6514 
2 *161:10 *2111:D 38 
*END

*D_NET *162 0.000836565
*CONN
*I *2112:D I *D sky130_fd_sc_hd__dfrtp_2
*I *1813:Y O *D sky130_fd_sc_hd__xnor2_2
*CAP
1 *2112:D 0
2 *1813:Y 0.000287125
3 *162:10 0.000287125
4 *162:10 *2111:CLK 9.60669e-05
5 *162:10 *459:58 6.28488e-05
6 *162:10 *461:8 6.35028e-05
7 *162:10 *752:10 3.28925e-06
8 *162:10 *752:84 0
9 *161:10 *162:10 3.6608e-05
*RES
1 *1813:Y *162:10 43.8207 
2 *162:10 *2112:D 38 
*END

*D_NET *163 0.000245045
*CONN
*I *2113:D I *D sky130_fd_sc_hd__dfrtp_2
*I *1816:Y O *D sky130_fd_sc_hd__nor3_2
*CAP
1 *2113:D 0
2 *1816:Y 6.29822e-05
3 *163:8 6.29822e-05
4 *163:8 *1658:B 0.000116314
5 *163:8 *1815:D 2.76611e-06
6 *163:8 *463:8 0
*RES
1 *1816:Y *163:8 39.5536 
2 *163:8 *2113:D 38 
*END

*D_NET *164 0.00108406
*CONN
*I *2114:D I *D sky130_fd_sc_hd__dfrtp_2
*I *1819:X O *D sky130_fd_sc_hd__o21a_2
*CAP
1 *2114:D 0.000295388
2 *1819:X 5.88038e-05
3 *164:8 0.000354192
4 *2114:D *2114:RESET_B 0.000120847
5 *164:8 *366:10 0.000169683
6 *164:8 *465:8 8.51432e-05
*RES
1 *1819:X *164:8 40.2579 
2 *164:8 *2114:D 43.3857 
*END

*D_NET *165 0.000730128
*CONN
*I *2104:D I *D sky130_fd_sc_hd__dfrtp_2
*I *1800:X O *D sky130_fd_sc_hd__and2_2
*CAP
1 *2104:D 0
2 *1800:X 0.000277554
3 *165:10 0.000277554
4 *165:10 *168:8 0
5 *165:10 *335:23 0
6 *165:10 *341:27 1.18615e-05
7 *165:10 *684:10 0.000163158
*RES
1 *1800:X *165:10 43.4686 
2 *165:10 *2104:D 38 
*END

*D_NET *166 0.000356715
*CONN
*I *2102:D I *D sky130_fd_sc_hd__dfstp_2
*I *1798:X O *D sky130_fd_sc_hd__a21o_2
*CAP
1 *2102:D 5.25533e-05
2 *1798:X 0.000107236
3 *166:8 0.000159789
4 *2102:D *539:18 3.71369e-05
5 *166:8 *535:209 0
6 *166:8 *708:10 0
*RES
1 *1798:X *166:8 39.9057 
2 *166:8 *2102:D 39.0979 
*END

*D_NET *167 0.00100466
*CONN
*I *2101:D I *D sky130_fd_sc_hd__dfstp_2
*I *1799:X O *D sky130_fd_sc_hd__a21o_2
*CAP
1 *2101:D 0.000177313
2 *1799:X 0.000201782
3 *167:10 0.000379095
4 *167:10 *228:8 3.31127e-05
5 *167:10 *535:209 7.30978e-05
6 *167:10 *539:18 0
7 *167:10 *539:20 0.000140259
*RES
1 *1799:X *167:10 42.5364 
2 *167:10 *2101:D 41.0036 
*END

*D_NET *168 0.000257118
*CONN
*I *2103:D I *D sky130_fd_sc_hd__dfrtp_2
*I *1801:X O *D sky130_fd_sc_hd__and2_2
*CAP
1 *2103:D 0
2 *1801:X 7.19824e-05
3 *168:8 7.19824e-05
4 *168:8 *335:23 0.000113153
5 *165:10 *168:8 0
*RES
1 *1801:X *168:8 39.5536 
2 *168:8 *2103:D 38 
*END

*D_NET *169 0.017914
*CONN
*I *1931:A I *D sky130_fd_sc_hd__and3_2
*I *1922:A I *D sky130_fd_sc_hd__and3_2
*I *2012:RESET_B I *D sky130_fd_sc_hd__dfrtp_2
*I *1883:C1 I *D sky130_fd_sc_hd__o211a_2
*I *1875:C1 I *D sky130_fd_sc_hd__o211a_2
*I *1868:B1 I *D sky130_fd_sc_hd__o21ai_2
*I *1619:Y O *D sky130_fd_sc_hd__inv_2
*CAP
1 *1931:A 4.82374e-05
2 *1922:A 0
3 *2012:RESET_B 0.00124466
4 *1883:C1 0
5 *1875:C1 0.000425883
6 *1868:B1 0
7 *1619:Y 0
8 *169:91 0.000572845
9 *169:79 0.00113771
10 *169:28 0.000481218
11 *169:26 0.000208436
12 *169:18 0.00560452
13 *169:6 0.00472339
14 *1875:C1 *1868:A2 0
15 *1875:C1 *1875:B1 1.8788e-05
16 *1875:C1 *492:79 0.000112739
17 *1875:C1 *492:87 9.4713e-05
18 *1875:C1 *703:29 0.000106302
19 *2012:RESET_B *324:10 5.5266e-05
20 *2012:RESET_B *496:10 8.4047e-05
21 *2012:RESET_B *501:20 3.04736e-05
22 *2012:RESET_B *506:10 1.10864e-05
23 *2012:RESET_B *555:6 4.72762e-05
24 *169:18 *1914:B1 3.54163e-05
25 *169:18 *1924:A1 0.000182473
26 *169:18 *272:12 0.000114474
27 *169:18 *636:34 0.000180232
28 *169:18 *687:63 0
29 *169:26 *259:12 1.79749e-05
30 *169:26 *496:54 4.70953e-05
31 *169:28 *492:79 9.58714e-05
32 *169:79 *1924:A1 0.000259609
33 *169:79 *1931:B 0.000137525
34 *169:79 *2046:D 0.000135857
35 *169:79 *528:18 1.5037e-05
36 *169:79 *528:20 0.000217916
37 *169:79 *613:12 9.95642e-05
38 *169:79 *658:36 0.000177344
39 *169:91 *2044:D 4.16795e-05
40 *169:91 *249:10 5.56356e-05
41 *169:91 *279:20 8.54204e-05
42 *169:91 *528:32 2.93335e-05
43 *169:91 *547:79 0.000213899
44 *169:91 *651:8 1.09917e-05
45 *169:91 *658:36 9.08709e-06
46 *169:91 *660:6 0.000123693
47 *169:91 *660:14 0
48 *169:91 *660:27 0.000146622
49 red[0] *169:18 0
50 red[2] *169:18 2.28446e-05
51 *114:10 *169:91 0.000168042
52 *123:10 *169:91 3.87221e-06
53 *124:12 *169:18 0.000278885
*RES
1 *1619:Y *169:6 38 
2 *169:6 *169:18 35.8214 
3 *169:18 *169:26 23.858 
4 *169:26 *169:28 1.09786 
5 *169:28 *1868:B1 23 
6 *169:28 *1875:C1 31.2857 
7 *169:26 *1883:C1 23 
8 *169:18 *2012:RESET_B 31.6313 
9 *169:6 *169:79 27.2421 
10 *169:79 *169:91 43.4021 
11 *169:91 *1922:A 23 
12 *169:79 *1931:A 24.2014 
*END

*D_NET *170 0.000197669
*CONN
*I *2013:SET_B I *D sky130_fd_sc_hd__dfstp_2
*I *1932:Y O *D sky130_fd_sc_hd__inv_2
*CAP
1 *2013:SET_B 0
2 *1932:Y 7.21025e-05
3 *170:8 7.21025e-05
4 *170:8 *345:12 5.34638e-05
*RES
1 *1932:Y *170:8 39.5536 
2 *170:8 *2013:SET_B 15 
*END

*D_NET *171 0.000451031
*CONN
*I *2014:RESET_B I *D sky130_fd_sc_hd__dfrtp_2
*I *1933:Y O *D sky130_fd_sc_hd__inv_2
*CAP
1 *2014:RESET_B 0
2 *1933:Y 0.000149443
3 *171:10 0.000149443
4 *171:10 *448:10 0.000152145
*RES
1 *1933:Y *171:10 41.2314 
2 *171:10 *2014:RESET_B 15 
*END

*D_NET *172 0.000535813
*CONN
*I *2015:SET_B I *D sky130_fd_sc_hd__dfstp_2
*I *1934:Y O *D sky130_fd_sc_hd__inv_2
*CAP
1 *2015:SET_B 0
2 *1934:Y 0.000227094
3 *172:8 0.000227094
4 *172:8 *1779:A2 0
5 *172:8 *1779:B1_N 8.16253e-05
6 *172:8 *538:76 0
7 *172:8 *701:74 0
*RES
1 *1934:Y *172:8 42.3707 
2 *172:8 *2015:SET_B 15 
*END

*D_NET *173 0.000314088
*CONN
*I *2016:RESET_B I *D sky130_fd_sc_hd__dfrtp_2
*I *1935:Y O *D sky130_fd_sc_hd__inv_2
*CAP
1 *2016:RESET_B 0
2 *1935:Y 0.000157044
3 *173:10 0.000157044
*RES
1 *1935:Y *173:10 40.175 
2 *173:10 *2016:RESET_B 15 
*END

*D_NET *174 0.000358839
*CONN
*I *2047:RESET_B I *D sky130_fd_sc_hd__dfrtp_2
*I *1936:Y O *D sky130_fd_sc_hd__inv_2
*CAP
1 *2047:RESET_B 0
2 *1936:Y 0.000125976
3 *174:10 0.000125976
4 *174:10 *554:41 5.12512e-05
5 *174:10 *557:22 5.56356e-05
*RES
1 *1936:Y *174:10 40.175 
2 *174:10 *2047:RESET_B 15 
*END

*D_NET *175 0.000901896
*CONN
*I *2048:RESET_B I *D sky130_fd_sc_hd__dfrtp_2
*I *1937:Y O *D sky130_fd_sc_hd__inv_2
*CAP
1 *2048:RESET_B 0.000100049
2 *1937:Y 0.000208604
3 *175:10 0.000308654
4 *2048:RESET_B *557:10 1.05235e-05
5 *175:10 *2162:A 1.09834e-05
6 *175:10 *2258:A 7.75677e-05
7 *175:10 *557:10 8.50366e-05
8 *175:10 *689:44 0.000100477
*RES
1 *1937:Y *175:10 42.1843 
2 *175:10 *2048:RESET_B 16.5018 
*END

*D_NET *176 0.00139541
*CONN
*I *2049:RESET_B I *D sky130_fd_sc_hd__dfrtp_2
*I *1938:Y O *D sky130_fd_sc_hd__inv_2
*CAP
1 *2049:RESET_B 0.000108008
2 *1938:Y 0.00018358
3 *176:8 0.000291587
4 *2049:RESET_B *1737:A 5.3304e-05
5 *2049:RESET_B *552:44 9.41704e-05
6 *176:8 *1739:A 0.000220665
7 *176:8 *2096:CLK 9.70579e-05
8 *176:8 *537:28 0.000102736
9 *176:8 *553:8 0.000244303
10 *176:8 *692:42 0
*RES
1 *1938:Y *176:8 44.1314 
2 *176:8 *2049:RESET_B 16.9782 
*END

*D_NET *177 0.000358571
*CONN
*I *2050:RESET_B I *D sky130_fd_sc_hd__dfrtp_2
*I *1939:Y O *D sky130_fd_sc_hd__inv_2
*CAP
1 *2050:RESET_B 0
2 *1939:Y 0.000139974
3 *177:8 0.000139974
4 *177:8 *535:154 7.86228e-05
5 *177:8 *690:75 0
*RES
1 *1939:Y *177:8 40.61 
2 *177:8 *2050:RESET_B 15 
*END

*D_NET *178 0.000926443
*CONN
*I *2051:RESET_B I *D sky130_fd_sc_hd__dfrtp_2
*I *1940:Y O *D sky130_fd_sc_hd__inv_2
*CAP
1 *2051:RESET_B 0.000136664
2 *1940:Y 0.000127375
3 *178:8 0.000264039
4 *2051:RESET_B *1747:B 4.5051e-05
5 *2051:RESET_B *1747:C 9.84794e-05
6 *2051:RESET_B *712:12 4.5051e-05
7 *2051:RESET_B *714:36 5.3304e-05
8 *178:8 *713:16 7.75329e-06
9 *178:8 *714:36 0.000138718
10 *178:8 *714:40 1.00084e-05
*RES
1 *1940:Y *178:8 40.2579 
2 *178:8 *2051:RESET_B 17.9311 
*END

*D_NET *179 0.0013409
*CONN
*I *2052:RESET_B I *D sky130_fd_sc_hd__dfrtp_2
*I *1941:Y O *D sky130_fd_sc_hd__inv_2
*CAP
1 *2052:RESET_B 0
2 *1941:Y 0.000382
3 *179:10 0.000382
4 *179:10 *330:25 1.07299e-05
5 *179:10 *442:10 0.00016277
6 *179:10 *446:8 0
7 *179:10 *450:10 8.36198e-05
8 *179:10 *535:15 8.41357e-05
9 *179:10 *535:33 4.12225e-05
10 *179:10 *551:18 5.5792e-05
11 *179:10 *713:86 0.000138629
12 *179:10 *731:122 0
*RES
1 *1941:Y *179:10 45.8093 
2 *179:10 *2052:RESET_B 15 
*END

*D_NET *180 0.000308731
*CONN
*I *2053:RESET_B I *D sky130_fd_sc_hd__dfrtp_2
*I *1942:Y O *D sky130_fd_sc_hd__inv_2
*CAP
1 *2053:RESET_B 0
2 *1942:Y 0.000118702
3 *180:10 0.000118702
4 *180:10 *436:10 0
5 *180:10 *690:30 1.32314e-05
6 *180:10 *731:122 5.80963e-05
*RES
1 *1942:Y *180:10 40.175 
2 *180:10 *2053:RESET_B 15 
*END

*D_NET *181 0.00145489
*CONN
*I *2054:RESET_B I *D sky130_fd_sc_hd__dfrtp_2
*I *1943:Y O *D sky130_fd_sc_hd__inv_2
*CAP
1 *2054:RESET_B 0
2 *1943:Y 0.000374871
3 *181:10 0.000374871
4 *181:10 *1740:A1 0.000141347
5 *181:10 *1740:A2 0.000188526
6 *181:10 *407:12 0.00011619
7 *181:10 *423:8 0.000233211
8 *181:10 *692:14 2.58781e-05
*RES
1 *1943:Y *181:10 47.1764 
2 *181:10 *2054:RESET_B 15 
*END

*D_NET *182 0.00088055
*CONN
*I *2055:RESET_B I *D sky130_fd_sc_hd__dfrtp_2
*I *1944:Y O *D sky130_fd_sc_hd__inv_2
*CAP
1 *2055:RESET_B 0
2 *1944:Y 0.000378393
3 *182:14 0.000378393
4 *182:14 *692:90 0
5 *13:10 *182:14 0.000123764
*RES
1 *1944:Y *182:14 44.7114 
2 *182:14 *2055:RESET_B 15 
*END

*D_NET *183 0.00159561
*CONN
*I *2056:RESET_B I *D sky130_fd_sc_hd__dfrtp_2
*I *1945:Y O *D sky130_fd_sc_hd__inv_2
*CAP
1 *2056:RESET_B 0
2 *1945:Y 0.00063225
3 *183:10 0.00063225
4 *183:10 *1945:A 0.000178171
5 *183:10 *2174:A 5.14826e-05
6 *183:10 *552:62 4.28979e-05
7 *183:10 *692:78 5.58003e-05
8 *183:10 *729:36 0
9 *131:10 *183:10 2.75733e-06
*RES
1 *1945:Y *183:10 47.5493 
2 *183:10 *2056:RESET_B 15 
*END

*D_NET *184 0.000339208
*CONN
*I *2057:RESET_B I *D sky130_fd_sc_hd__dfrtp_2
*I *1946:Y O *D sky130_fd_sc_hd__inv_2
*CAP
1 *2057:RESET_B 0
2 *1946:Y 0.00014026
3 *184:10 0.00014026
4 *184:10 *447:30 3.76387e-05
5 *184:10 *481:22 2.10502e-05
*RES
1 *1946:Y *184:10 40.5271 
2 *184:10 *2057:RESET_B 15 
*END

*D_NET *185 0.00164335
*CONN
*I *2058:RESET_B I *D sky130_fd_sc_hd__dfrtp_2
*I *1947:Y O *D sky130_fd_sc_hd__inv_2
*CAP
1 *2058:RESET_B 0.000155059
2 *1947:Y 0.000273804
3 *185:10 0.000428863
4 *2058:RESET_B *2058:CLK 3.22051e-05
5 *2058:RESET_B *291:18 6.51972e-05
6 *2058:RESET_B *544:77 2.93335e-05
7 *2058:RESET_B *680:36 0.000441633
8 *185:10 *1730:A 3.22051e-05
9 *185:10 *291:10 2.40392e-05
10 *185:10 *292:10 9.94414e-05
11 *185:10 *544:77 6.15719e-05
*RES
1 *1947:Y *185:10 43.4893 
2 *185:10 *2058:RESET_B 19.8368 
*END

*D_NET *186 0.000595545
*CONN
*I *2059:RESET_B I *D sky130_fd_sc_hd__dfrtp_2
*I *1948:Y O *D sky130_fd_sc_hd__inv_2
*CAP
1 *2059:RESET_B 3.53968e-05
2 *1948:Y 0.000205239
3 *186:8 0.000240636
4 *2059:RESET_B *726:8 1.19087e-05
5 *186:8 *217:10 0.000102365
6 *186:8 *330:25 0
7 *186:8 *450:33 0
8 *134:10 *186:8 0
*RES
1 *1948:Y *186:8 42.3707 
2 *186:8 *2059:RESET_B 15.5489 
*END

*D_NET *187 0.000217963
*CONN
*I *2060:RESET_B I *D sky130_fd_sc_hd__dfrtp_2
*I *1949:Y O *D sky130_fd_sc_hd__inv_2
*CAP
1 *2060:RESET_B 0
2 *1949:Y 8.87569e-05
3 *187:8 8.87569e-05
4 *187:8 *727:16 4.04496e-05
*RES
1 *1949:Y *187:8 39.9057 
2 *187:8 *2060:RESET_B 15 
*END

*D_NET *188 0.00096693
*CONN
*I *2061:RESET_B I *D sky130_fd_sc_hd__dfrtp_2
*I *1950:Y O *D sky130_fd_sc_hd__inv_2
*CAP
1 *2061:RESET_B 0.000184336
2 *1950:Y 0.00016874
3 *188:8 0.000353075
4 *2061:RESET_B *728:10 5.67058e-05
5 *188:8 *550:14 4.31366e-05
6 *188:8 *550:36 6.38947e-05
7 *188:8 *681:8 0
8 *188:8 *728:10 2.29192e-05
9 *188:8 *728:27 7.41231e-05
*RES
1 *1950:Y *188:8 42.3707 
2 *188:8 *2061:RESET_B 18.4075 
*END

*D_NET *189 0.000347305
*CONN
*I *2062:RESET_B I *D sky130_fd_sc_hd__dfrtp_2
*I *1951:Y O *D sky130_fd_sc_hd__inv_2
*CAP
1 *2062:RESET_B 0
2 *1951:Y 0.000134876
3 *189:10 0.000134876
4 *189:10 *1951:A 6.17437e-06
5 *189:10 *2092:CLK 1.5769e-05
6 *189:10 *407:12 0
7 *189:10 *694:16 5.561e-05
*RES
1 *1951:Y *189:10 40.175 
2 *189:10 *2062:RESET_B 15 
*END

*D_NET *190 0.00110947
*CONN
*I *2063:RESET_B I *D sky130_fd_sc_hd__dfrtp_2
*I *1952:Y O *D sky130_fd_sc_hd__inv_2
*CAP
1 *2063:RESET_B 6.08505e-05
2 *1952:Y 0.00027595
3 *190:10 0.000336801
4 *2063:RESET_B *705:10 5.3304e-05
5 *2063:RESET_B *733:16 1.24376e-05
6 *190:10 *329:12 0
7 *190:10 *402:6 5.67058e-05
8 *190:10 *413:41 1.22803e-05
9 *190:10 *705:10 0.000160182
10 *190:10 *705:12 0.000140958
*RES
1 *1952:Y *190:10 42.9921 
2 *190:10 *2063:RESET_B 16.0254 
*END

*D_NET *191 0.000828757
*CONN
*I *2064:RESET_B I *D sky130_fd_sc_hd__dfrtp_2
*I *1953:Y O *D sky130_fd_sc_hd__inv_2
*CAP
1 *2064:RESET_B 5.87198e-05
2 *1953:Y 8.83474e-05
3 *191:8 0.000147067
4 *2064:RESET_B *2064:D 0.000121078
5 *2064:RESET_B *484:6 0.000223926
6 *191:8 *659:14 9.13954e-05
7 *191:8 *678:18 5.93605e-05
8 *191:8 *678:20 3.88629e-05
*RES
1 *1953:Y *191:8 40.61 
2 *191:8 *2064:RESET_B 17.4546 
*END

*D_NET *192 0.000481186
*CONN
*I *2065:RESET_B I *D sky130_fd_sc_hd__dfrtp_2
*I *1954:Y O *D sky130_fd_sc_hd__inv_2
*CAP
1 *2065:RESET_B 0
2 *1954:Y 0.000144212
3 *192:8 0.000144212
4 *192:8 *299:8 0
5 *192:8 *679:23 0.000192761
*RES
1 *1954:Y *192:8 40.61 
2 *192:8 *2065:RESET_B 15 
*END

*D_NET *193 0.000582819
*CONN
*I *2066:RESET_B I *D sky130_fd_sc_hd__dfrtp_2
*I *1955:Y O *D sky130_fd_sc_hd__inv_2
*CAP
1 *2066:RESET_B 0
2 *1955:Y 0.000131964
3 *193:10 0.000131964
4 *193:10 *1703:A 9.62366e-05
5 *193:10 *399:10 0.000112396
6 *193:10 *696:80 0.000110258
*RES
1 *1955:Y *193:10 40.6514 
2 *193:10 *2066:RESET_B 15 
*END

*D_NET *194 0.00108149
*CONN
*I *2067:RESET_B I *D sky130_fd_sc_hd__dfrtp_2
*I *1956:Y O *D sky130_fd_sc_hd__inv_2
*CAP
1 *2067:RESET_B 4.10072e-05
2 *1956:Y 0.000402134
3 *194:10 0.000443142
4 *194:10 *1956:A 7.67578e-05
5 *194:10 *2241:A 7.95762e-05
6 *194:10 *763:8 3.88725e-05
*RES
1 *1956:Y *194:10 44.5664 
2 *194:10 *2067:RESET_B 15.5489 
*END

*D_NET *195 0.000441542
*CONN
*I *2068:RESET_B I *D sky130_fd_sc_hd__dfrtp_2
*I *1957:Y O *D sky130_fd_sc_hd__inv_2
*CAP
1 *2068:RESET_B 0
2 *1957:Y 0.000150995
3 *195:10 0.000150995
4 *195:10 *764:10 1.85413e-05
5 *195:10 *765:60 0.00012101
*RES
1 *1957:Y *195:10 41.2314 
2 *195:10 *2068:RESET_B 15 
*END

*D_NET *196 0.000301356
*CONN
*I *2069:RESET_B I *D sky130_fd_sc_hd__dfrtp_2
*I *1958:Y O *D sky130_fd_sc_hd__inv_2
*CAP
1 *2069:RESET_B 0
2 *1958:Y 0.00013261
3 *196:10 0.00013261
4 *196:10 *542:73 2.99613e-05
5 *196:10 *699:58 6.17437e-06
*RES
1 *1958:Y *196:10 40.175 
2 *196:10 *2069:RESET_B 15 
*END

*D_NET *197 0.000259442
*CONN
*I *2070:RESET_B I *D sky130_fd_sc_hd__dfrtp_2
*I *1959:Y O *D sky130_fd_sc_hd__inv_2
*CAP
1 *2070:RESET_B 0
2 *1959:Y 7.39136e-05
3 *197:8 7.39136e-05
4 *197:8 *1959:A 0.000111615
5 *197:8 *699:58 0
*RES
1 *1959:Y *197:8 39.5536 
2 *197:8 *2070:RESET_B 15 
*END

*D_NET *198 0.000986468
*CONN
*I *2071:RESET_B I *D sky130_fd_sc_hd__dfrtp_2
*I *1960:Y O *D sky130_fd_sc_hd__inv_2
*CAP
1 *2071:RESET_B 0
2 *1960:Y 0.00042341
3 *198:10 0.00042341
4 *198:10 *767:75 0
5 *198:10 *769:63 0.000139647
6 mem_wdata[21] *198:10 0
7 *71:8 *198:10 0
*RES
1 *1960:Y *198:10 44.8979 
2 *198:10 *2071:RESET_B 15 
*END

*D_NET *199 0.000255492
*CONN
*I *2072:RESET_B I *D sky130_fd_sc_hd__dfrtp_2
*I *1961:Y O *D sky130_fd_sc_hd__inv_2
*CAP
1 *2072:RESET_B 0
2 *1961:Y 7.1385e-05
3 *199:8 7.1385e-05
4 *199:8 *699:32 0
5 *199:8 *700:46 0.000112722
*RES
1 *1961:Y *199:8 39.5536 
2 *199:8 *2072:RESET_B 15 
*END

*D_NET *200 0.000450999
*CONN
*I *2073:RESET_B I *D sky130_fd_sc_hd__dfrtp_2
*I *1962:Y O *D sky130_fd_sc_hd__inv_2
*CAP
1 *2073:RESET_B 0
2 *1962:Y 0.000225499
3 *200:10 0.000225499
4 *200:10 *768:38 0
5 *62:10 *200:10 0
*RES
1 *1962:Y *200:10 42.2879 
2 *200:10 *2073:RESET_B 15 
*END

*D_NET *201 0.000870284
*CONN
*I *2074:RESET_B I *D sky130_fd_sc_hd__dfrtp_2
*I *1963:Y O *D sky130_fd_sc_hd__inv_2
*CAP
1 *2074:RESET_B 6.60305e-05
2 *1963:Y 0.000235357
3 *201:10 0.000301387
4 *201:10 *386:10 0.000171906
5 *201:10 *696:61 8.17373e-05
6 *201:10 *696:80 1.3867e-05
*RES
1 *1963:Y *201:10 42.9921 
2 *201:10 *2074:RESET_B 16.0254 
*END

*D_NET *202 0.000929779
*CONN
*I *2075:RESET_B I *D sky130_fd_sc_hd__dfrtp_2
*I *1964:Y O *D sky130_fd_sc_hd__inv_2
*CAP
1 *2075:RESET_B 4.86135e-05
2 *1964:Y 0.000158412
3 *202:10 0.000207026
4 *2075:RESET_B *385:20 0.000178599
5 *2075:RESET_B *771:8 9.83357e-05
6 *202:10 *309:16 0.000108352
7 *202:10 *310:8 0.000110593
8 *202:10 *696:112 1.98483e-05
*RES
1 *1964:Y *202:10 40.6514 
2 *202:10 *2075:RESET_B 16.9782 
*END

*D_NET *203 0.000909226
*CONN
*I *2076:RESET_B I *D sky130_fd_sc_hd__dfrtp_2
*I *1965:Y O *D sky130_fd_sc_hd__inv_2
*CAP
1 *2076:RESET_B 0
2 *1965:Y 0.00035959
3 *203:8 0.00035959
4 *203:8 *1671:B 0
5 *203:8 *2077:CLK 0.000127412
6 *203:8 *311:10 0
7 *203:8 *541:65 2.64527e-05
8 *203:8 *695:63 1.50326e-05
9 *203:8 *696:14 2.11489e-05
*RES
1 *1965:Y *203:8 45.54 
2 *203:8 *2076:RESET_B 15 
*END

*D_NET *204 0.00042246
*CONN
*I *2077:RESET_B I *D sky130_fd_sc_hd__dfrtp_2
*I *1966:Y O *D sky130_fd_sc_hd__inv_2
*CAP
1 *2077:RESET_B 0
2 *1966:Y 0.000195128
3 *204:10 0.000195128
4 *204:10 *2078:CLK 3.22051e-05
*RES
1 *1966:Y *204:10 41.2314 
2 *204:10 *2077:RESET_B 15 
*END

*D_NET *205 0.0003842
*CONN
*I *2078:RESET_B I *D sky130_fd_sc_hd__dfrtp_2
*I *1967:Y O *D sky130_fd_sc_hd__inv_2
*CAP
1 *2078:RESET_B 0
2 *1967:Y 0.000117517
3 *205:10 0.000117517
4 *205:10 *1664:C 0
5 *205:10 *698:27 1.32314e-05
6 *205:10 *698:37 0.000135934
*RES
1 *1967:Y *205:10 40.175 
2 *205:10 *2078:RESET_B 15 
*END

*D_NET *206 0.000717324
*CONN
*I *2079:RESET_B I *D sky130_fd_sc_hd__dfrtp_2
*I *1968:Y O *D sky130_fd_sc_hd__inv_2
*CAP
1 *2079:RESET_B 0
2 *1968:Y 0.00029008
3 *206:8 0.00029008
4 *206:8 *1664:C 0
5 *206:8 *585:10 0.000137163
6 *206:8 *701:82 0
7 *206:8 *759:10 0
8 *206:8 *760:12 0
*RES
1 *1968:Y *206:8 43.4271 
2 *206:8 *2079:RESET_B 15 
*END

*D_NET *207 0.000401594
*CONN
*I *2080:RESET_B I *D sky130_fd_sc_hd__dfrtp_2
*I *1969:Y O *D sky130_fd_sc_hd__inv_2
*CAP
1 *2080:RESET_B 0
2 *1969:Y 5.67842e-05
3 *207:8 5.67842e-05
4 *207:8 *699:23 0.000140036
5 *207:8 *761:14 6.437e-05
6 *207:8 *761:40 8.36198e-05
*RES
1 *1969:Y *207:8 39.9057 
2 *207:8 *2080:RESET_B 15 
*END

*D_NET *208 0.000207218
*CONN
*I *2081:RESET_B I *D sky130_fd_sc_hd__dfrtp_2
*I *1970:Y O *D sky130_fd_sc_hd__inv_2
*CAP
1 *2081:RESET_B 0
2 *1970:Y 0.000103609
3 *208:8 0.000103609
4 *208:8 *2181:A 0
5 *208:8 *762:35 0
6 *86:10 *208:8 0
*RES
1 *1970:Y *208:8 39.5536 
2 *208:8 *2081:RESET_B 15 
*END

*D_NET *209 0.0001869
*CONN
*I *2082:SET_B I *D sky130_fd_sc_hd__dfstp_2
*I *1971:Y O *D sky130_fd_sc_hd__inv_2
*CAP
1 *2082:SET_B 0
2 *1971:Y 7.46917e-05
3 *209:8 7.46917e-05
4 *13:10 *209:8 3.75168e-05
*RES
1 *1971:Y *209:8 39.5536 
2 *209:8 *2082:SET_B 15 
*END

*D_NET *210 0.000490366
*CONN
*I *2083:RESET_B I *D sky130_fd_sc_hd__dfrtp_2
*I *1972:Y O *D sky130_fd_sc_hd__inv_2
*CAP
1 *2083:RESET_B 0
2 *1972:Y 0.000144568
3 *210:10 0.000144568
4 *210:10 *1972:A 4.91172e-06
5 *210:10 *691:49 0.000196318
*RES
1 *1972:Y *210:10 41.2314 
2 *210:10 *2083:RESET_B 15 
*END

*D_NET *211 0.000709606
*CONN
*I *2084:RESET_B I *D sky130_fd_sc_hd__dfrtp_2
*I *1973:Y O *D sky130_fd_sc_hd__inv_2
*CAP
1 *2084:RESET_B 0
2 *1973:Y 0.000193352
3 *211:8 0.000193352
4 *211:8 *1616:A 0
5 *211:8 *294:10 0
6 *211:8 *681:69 0.000322901
*RES
1 *1973:Y *211:8 42.3707 
2 *211:8 *2084:RESET_B 15 
*END

*D_NET *212 0.00095675
*CONN
*I *2085:RESET_B I *D sky130_fd_sc_hd__dfrtp_2
*I *1974:Y O *D sky130_fd_sc_hd__inv_2
*CAP
1 *2085:RESET_B 0
2 *1974:Y 0.000350788
3 *212:10 0.000350788
4 *212:10 *1626:A 5.58003e-05
5 *212:10 *1974:A 0.000108916
6 *212:10 *449:48 0
7 *212:10 *681:32 9.04568e-05
8 *212:10 *736:25 0
*RES
1 *1974:Y *212:10 44.7529 
2 *212:10 *2085:RESET_B 15 
*END

*D_NET *213 0.0013406
*CONN
*I *2086:RESET_B I *D sky130_fd_sc_hd__dfrtp_2
*I *1975:Y O *D sky130_fd_sc_hd__inv_2
*CAP
1 *2086:RESET_B 6.21684e-05
2 *1975:Y 0.000439506
3 *213:10 0.000501674
4 *2086:RESET_B *544:23 4.80749e-05
5 *2086:RESET_B *681:94 7.27655e-05
6 *213:10 *445:10 7.67461e-05
7 *213:10 *535:43 0.000119184
8 *213:10 *681:94 0
9 *213:10 *737:52 2.04854e-05
*RES
1 *1975:Y *213:10 45.6021 
2 *213:10 *2086:RESET_B 16.5018 
*END

*D_NET *214 0.000508185
*CONN
*I *2087:SET_B I *D sky130_fd_sc_hd__dfstp_2
*I *1976:Y O *D sky130_fd_sc_hd__inv_2
*CAP
1 *2087:SET_B 0
2 *1976:Y 5.86046e-05
3 *214:8 5.86046e-05
4 *214:8 *411:16 0.000195488
5 *214:8 *680:14 0.000195488
*RES
1 *1976:Y *214:8 40.61 
2 *214:8 *2087:SET_B 15 
*END

*D_NET *215 0.000729334
*CONN
*I *2088:RESET_B I *D sky130_fd_sc_hd__dfrtp_2
*I *1977:Y O *D sky130_fd_sc_hd__inv_2
*CAP
1 *2088:RESET_B 0
2 *1977:Y 0.000180861
3 *215:8 0.000180861
4 *215:8 *449:12 0.000206416
5 *215:8 *579:8 7.03869e-05
6 *215:8 *681:8 9.08091e-05
*RES
1 *1977:Y *215:8 43.4271 
2 *215:8 *2088:RESET_B 15 
*END

*D_NET *216 0.00186793
*CONN
*I *2089:RESET_B I *D sky130_fd_sc_hd__dfrtp_2
*I *1978:Y O *D sky130_fd_sc_hd__inv_2
*CAP
1 *2089:RESET_B 0.000192966
2 *1978:Y 0.000410963
3 *216:10 0.000603929
4 *2089:RESET_B *487:8 1.94693e-05
5 *2089:RESET_B *733:8 0.000137039
6 *216:10 *1857:A2 0.000136738
7 *216:10 *2240:A 0.000110913
8 *216:10 *675:24 0.000111852
9 *216:10 *681:94 0.000144062
*RES
1 *1978:Y *216:10 44.4629 
2 *216:10 *2089:RESET_B 18.8839 
*END

*D_NET *217 0.000680381
*CONN
*I *2090:RESET_B I *D sky130_fd_sc_hd__dfrtp_2
*I *1979:Y O *D sky130_fd_sc_hd__inv_2
*CAP
1 *2090:RESET_B 0
2 *1979:Y 0.000235869
3 *217:10 0.000235869
4 *217:10 *690:75 0.000106277
5 *186:8 *217:10 0.000102365
*RES
1 *1979:Y *217:10 42.6607 
2 *217:10 *2090:RESET_B 15 
*END

*D_NET *218 0.00067415
*CONN
*I *2091:RESET_B I *D sky130_fd_sc_hd__dfrtp_2
*I *1980:Y O *D sky130_fd_sc_hd__inv_2
*CAP
1 *2091:RESET_B 6.82039e-05
2 *1980:Y 9.36298e-05
3 *218:8 0.000161834
4 *2091:RESET_B *2085:CLK 4.58635e-05
5 *218:8 *555:80 0
6 *218:8 *681:94 0.000188304
7 *218:8 *735:8 0.000116314
*RES
1 *1980:Y *218:8 40.61 
2 *218:8 *2091:RESET_B 16.0254 
*END

*D_NET *219 0.000182271
*CONN
*I *2092:RESET_B I *D sky130_fd_sc_hd__dfrtp_2
*I *1981:Y O *D sky130_fd_sc_hd__inv_2
*CAP
1 *2092:RESET_B 0
2 *1981:Y 7.58576e-05
3 *219:8 7.58576e-05
4 *219:8 *421:42 0
5 *219:8 *701:57 3.0556e-05
*RES
1 *1981:Y *219:8 39.5536 
2 *219:8 *2092:RESET_B 15 
*END

*D_NET *220 0.000738845
*CONN
*I *2093:RESET_B I *D sky130_fd_sc_hd__dfrtp_2
*I *1982:Y O *D sky130_fd_sc_hd__inv_2
*CAP
1 *2093:RESET_B 0
2 *1982:Y 0.000281683
3 *220:10 0.000281683
4 *220:10 *1951:A 8.91468e-07
5 *220:10 *553:34 0
6 *220:10 *616:10 0.000163352
7 *220:10 *692:46 3.70071e-06
8 *220:10 *692:59 7.53384e-06
*RES
1 *1982:Y *220:10 42.9921 
2 *220:10 *2093:RESET_B 15 
*END

*D_NET *221 0.000890088
*CONN
*I *2094:SET_B I *D sky130_fd_sc_hd__dfstp_2
*I *1983:Y O *D sky130_fd_sc_hd__inv_2
*CAP
1 *2094:SET_B 0
2 *1983:Y 0.000159212
3 *221:10 0.000159212
4 *221:10 *423:26 0.00025214
5 *221:10 *426:43 0.000182832
6 *13:10 *221:10 0.000136691
*RES
1 *1983:Y *221:10 43.365 
2 *221:10 *2094:SET_B 15 
*END

*D_NET *222 0.00119186
*CONN
*I *2095:RESET_B I *D sky130_fd_sc_hd__dfrtp_2
*I *1984:Y O *D sky130_fd_sc_hd__inv_2
*CAP
1 *2095:RESET_B 0.000301279
2 *1984:Y 0.000301279
3 *2095:RESET_B *2095:CLK 0.000195039
4 *2095:RESET_B *556:80 0.000394263
*RES
1 *1984:Y *2095:RESET_B 31.6689 
*END

*D_NET *223 0.00072046
*CONN
*I *2096:RESET_B I *D sky130_fd_sc_hd__dfrtp_2
*I *1985:Y O *D sky130_fd_sc_hd__inv_2
*CAP
1 *2096:RESET_B 0
2 *1985:Y 0.000190816
3 *223:10 0.000190816
4 *223:10 *1714:B 0.000193073
5 *223:10 *406:10 0.000145754
*RES
1 *1985:Y *223:10 42.1843 
2 *223:10 *2096:RESET_B 15 
*END

*D_NET *224 0.000549383
*CONN
*I *2097:RESET_B I *D sky130_fd_sc_hd__dfrtp_2
*I *1986:Y O *D sky130_fd_sc_hd__inv_2
*CAP
1 *2097:RESET_B 7.80372e-05
2 *1986:Y 9.79147e-05
3 *224:8 0.000175952
4 *224:8 *538:76 0
5 *224:8 *694:144 0.000197479
*RES
1 *1986:Y *224:8 40.61 
2 *224:8 *2097:RESET_B 16.0254 
*END

*D_NET *225 0.000181348
*CONN
*I *2098:RESET_B I *D sky130_fd_sc_hd__dfrtp_2
*I *1987:Y O *D sky130_fd_sc_hd__inv_2
*CAP
1 *2098:RESET_B 0
2 *1987:Y 7.16044e-05
3 *225:8 7.16044e-05
4 *225:8 *348:12 3.81391e-05
5 *225:8 *694:27 0
*RES
1 *1987:Y *225:8 39.5536 
2 *225:8 *2098:RESET_B 15 
*END

*D_NET *226 0.000243115
*CONN
*I *2099:RESET_B I *D sky130_fd_sc_hd__dfrtp_2
*I *1988:Y O *D sky130_fd_sc_hd__inv_2
*CAP
1 *2099:RESET_B 0
2 *1988:Y 4.78301e-05
3 *226:8 4.78301e-05
4 *226:8 *1988:A 0.000115526
5 *226:8 *731:109 3.19287e-05
*RES
1 *1988:Y *226:8 39.5536 
2 *226:8 *2099:RESET_B 15 
*END

*D_NET *227 0.000443861
*CONN
*I *2100:RESET_B I *D sky130_fd_sc_hd__dfrtp_2
*I *1989:Y O *D sky130_fd_sc_hd__inv_2
*CAP
1 *2100:RESET_B 0
2 *1989:Y 0.000148593
3 *227:10 0.000148593
4 *227:10 *1989:A 3.50862e-06
5 *227:10 *550:36 0.000143166
*RES
1 *1989:Y *227:10 41.3557 
2 *227:10 *2100:RESET_B 15 
*END

*D_NET *228 0.000429372
*CONN
*I *2101:SET_B I *D sky130_fd_sc_hd__dfstp_2
*I *1990:Y O *D sky130_fd_sc_hd__inv_2
*CAP
1 *2101:SET_B 0
2 *1990:Y 0.000198129
3 *228:8 0.000198129
4 *228:8 *535:209 0
5 *228:8 *539:10 0
6 *228:8 *539:18 0
7 *167:10 *228:8 3.31127e-05
*RES
1 *1990:Y *228:8 41.3143 
2 *228:8 *2101:SET_B 15 
*END

*D_NET *229 0.000184837
*CONN
*I *2102:SET_B I *D sky130_fd_sc_hd__dfstp_2
*I *1991:Y O *D sky130_fd_sc_hd__inv_2
*CAP
1 *2102:SET_B 0
2 *1991:Y 9.24184e-05
3 *229:8 9.24184e-05
4 *229:8 *539:18 0
*RES
1 *1991:Y *229:8 39.5536 
2 *229:8 *2102:SET_B 15 
*END

*D_NET *230 0.001154
*CONN
*I *2103:RESET_B I *D sky130_fd_sc_hd__dfrtp_2
*I *1992:Y O *D sky130_fd_sc_hd__inv_2
*CAP
1 *2103:RESET_B 0
2 *1992:Y 0.000376644
3 *230:10 0.000376644
4 *230:10 *1992:A 2.32101e-05
5 *230:10 *2159:A 4.06408e-05
6 *230:10 *337:8 0.000274543
7 *230:10 *539:24 0
8 *230:10 *539:35 0
9 *230:10 *684:40 6.17437e-06
10 *230:10 *688:27 5.61414e-05
11 *230:10 *688:124 0
12 *230:10 *734:52 0
13 *230:10 *774:8 0
*RES
1 *1992:Y *230:10 46.1614 
2 *230:10 *2103:RESET_B 15 
*END

*D_NET *231 0.000580939
*CONN
*I *2104:RESET_B I *D sky130_fd_sc_hd__dfrtp_2
*I *1993:Y O *D sky130_fd_sc_hd__inv_2
*CAP
1 *2104:RESET_B 6.99652e-05
2 *1993:Y 0.000105465
3 *231:8 0.00017543
4 *2104:RESET_B *2104:CLK 2.56078e-05
5 *231:8 *535:209 0
6 *231:8 *539:24 6.25829e-05
7 *231:8 *539:35 0.000141888
*RES
1 *1993:Y *231:8 40.61 
2 *231:8 *2104:RESET_B 16.0254 
*END

*D_NET *232 0.000810427
*CONN
*I *2105:RESET_B I *D sky130_fd_sc_hd__dfrtp_2
*I *1994:Y O *D sky130_fd_sc_hd__inv_2
*CAP
1 *2105:RESET_B 0
2 *1994:Y 0.0003783
3 *232:8 0.0003783
4 *232:8 *2195:A 2.14404e-05
5 *232:8 *457:10 3.23861e-05
6 *232:8 *548:70 0
*RES
1 *1994:Y *232:8 45.1879 
2 *232:8 *2105:RESET_B 15 
*END

*D_NET *233 0.00101218
*CONN
*I *2106:RESET_B I *D sky130_fd_sc_hd__dfrtp_2
*I *1995:Y O *D sky130_fd_sc_hd__inv_2
*CAP
1 *2106:RESET_B 0.000396168
2 *1995:Y 0.000396168
3 *2106:RESET_B *2219:A 0.000188934
4 *2106:RESET_B *747:6 3.09135e-05
*RES
1 *1995:Y *2106:RESET_B 29.7425 
*END

*D_NET *234 0.000825242
*CONN
*I *2107:RESET_B I *D sky130_fd_sc_hd__dfrtp_2
*I *1996:Y O *D sky130_fd_sc_hd__inv_2
*CAP
1 *2107:RESET_B 4.39516e-05
2 *1996:Y 0.000154652
3 *234:10 0.000198603
4 *234:10 *1651:D 2.64616e-05
5 *234:10 *685:51 1.46286e-05
6 *234:10 *687:36 0.000194532
7 *234:10 *748:21 0.000192413
*RES
1 *1996:Y *234:10 41.7079 
2 *234:10 *2107:RESET_B 15.5489 
*END

*D_NET *235 0.000877076
*CONN
*I *2108:RESET_B I *D sky130_fd_sc_hd__dfrtp_2
*I *1997:Y O *D sky130_fd_sc_hd__inv_2
*CAP
1 *2108:RESET_B 0.000145836
2 *1997:Y 5.242e-05
3 *235:8 0.000198256
4 *2108:RESET_B *2109:CLK 4.9662e-05
5 *2108:RESET_B *749:8 0.00018282
6 *235:8 *549:40 0.000110913
7 *235:8 *685:72 0.000110913
8 *2108:D *2108:RESET_B 2.62559e-05
*RES
1 *1997:Y *235:8 39.5536 
2 *235:8 *2108:RESET_B 18.4075 
*END

*D_NET *236 0.000630049
*CONN
*I *2109:RESET_B I *D sky130_fd_sc_hd__dfrtp_2
*I *1998:Y O *D sky130_fd_sc_hd__inv_2
*CAP
1 *2109:RESET_B 0.000179598
2 *1998:Y 0.000179598
3 *2109:RESET_B *1998:A 0.000233367
4 *2109:RESET_B *772:12 3.74873e-05
*RES
1 *1998:Y *2109:RESET_B 26.4075 
*END

*D_NET *237 0.000780659
*CONN
*I *2110:RESET_B I *D sky130_fd_sc_hd__dfrtp_2
*I *1999:Y O *D sky130_fd_sc_hd__inv_2
*CAP
1 *2110:RESET_B 0
2 *1999:Y 0.000249454
3 *237:10 0.000249454
4 *237:10 *1928:A_N 0.000145154
5 *237:10 *1999:A 0
6 *237:10 *530:10 0.000108157
7 *237:10 *773:20 2.84402e-05
*RES
1 *1999:Y *237:10 42.0807 
2 *237:10 *2110:RESET_B 15 
*END

*D_NET *238 0.000322345
*CONN
*I *2111:RESET_B I *D sky130_fd_sc_hd__dfrtp_2
*I *2000:Y O *D sky130_fd_sc_hd__inv_2
*CAP
1 *2111:RESET_B 0
2 *2000:Y 0.000113499
3 *238:10 0.000113499
4 *238:10 *700:84 7.61229e-06
5 *238:10 *700:94 8.77341e-05
*RES
1 *2000:Y *238:10 40.175 
2 *238:10 *2111:RESET_B 15 
*END

*D_NET *239 0.00123306
*CONN
*I *2112:RESET_B I *D sky130_fd_sc_hd__dfrtp_2
*I *2001:Y O *D sky130_fd_sc_hd__inv_2
*CAP
1 *2112:RESET_B 0
2 *2001:Y 0.000304633
3 *239:10 0.000304633
4 *239:10 *700:94 9.81751e-05
5 *239:10 *752:84 0.000273491
6 *239:10 *753:66 0.000252131
*RES
1 *2001:Y *239:10 46.8657 
2 *239:10 *2112:RESET_B 15 
*END

*D_NET *240 0.00049898
*CONN
*I *2113:RESET_B I *D sky130_fd_sc_hd__dfrtp_2
*I *2002:Y O *D sky130_fd_sc_hd__inv_2
*CAP
1 *2113:RESET_B 0
2 *2002:Y 0.000162552
3 *240:10 0.000162552
4 *240:10 *369:10 0
5 *240:10 *371:6 1.05235e-05
6 *240:10 *673:10 0.000163352
*RES
1 *2002:Y *240:10 40.8793 
2 *240:10 *2113:RESET_B 15 
*END

*D_NET *241 0.00166667
*CONN
*I *2114:RESET_B I *D sky130_fd_sc_hd__dfrtp_2
*I *2003:Y O *D sky130_fd_sc_hd__inv_2
*CAP
1 *2114:RESET_B 0.000266043
2 *2003:Y 0.00013827
3 *241:10 0.000404313
4 *241:10 *466:42 1.7992e-05
5 *241:10 *535:290 7.15126e-05
6 *241:10 *549:99 0.000360007
7 *241:10 *685:28 0.000248445
8 *241:10 *685:41 3.92407e-05
9 *2114:D *2114:RESET_B 0.000120847
*RES
1 *2003:Y *241:10 43.2407 
2 *241:10 *2114:RESET_B 19.3604 
*END

*D_NET *242 0.000755229
*CONN
*I *2115:RESET_B I *D sky130_fd_sc_hd__dfrtp_2
*I *2004:Y O *D sky130_fd_sc_hd__inv_2
*CAP
1 *2115:RESET_B 0
2 *2004:Y 0.000270322
3 *242:8 0.000270322
4 *242:8 *535:233 0
5 *242:8 *696:38 0.000214585
*RES
1 *2004:Y *242:8 43.4271 
2 *242:8 *2115:RESET_B 15 
*END

*D_NET *243 0.000414727
*CONN
*I *2116:RESET_B I *D sky130_fd_sc_hd__dfrtp_2
*I *2005:Y O *D sky130_fd_sc_hd__inv_2
*CAP
1 *2116:RESET_B 0.000159812
2 *2005:Y 0.000159812
3 *2116:RESET_B *696:34 5.58003e-05
4 *2116:RESET_B *742:8 3.93032e-05
*RES
1 *2005:Y *2116:RESET_B 25.9311 
*END

*D_NET *244 0.00103677
*CONN
*I *2117:RESET_B I *D sky130_fd_sc_hd__dfrtp_2
*I *2006:Y O *D sky130_fd_sc_hd__inv_2
*CAP
1 *2117:RESET_B 0
2 *2006:Y 0.000279745
3 *244:10 0.000279745
4 *244:10 *2006:A 2.64616e-05
5 *244:10 *535:290 1.14876e-05
6 *244:10 *743:21 5.55241e-05
7 *244:10 *743:32 6.09655e-05
8 *244:10 *744:38 0.000113612
9 *244:10 *745:25 1.70419e-05
10 *152:8 *244:10 0.000192185
*RES
1 *2006:Y *244:10 44.525 
2 *244:10 *2117:RESET_B 15 
*END

*D_NET *245 0.00042593
*CONN
*I *2118:RESET_B I *D sky130_fd_sc_hd__dfrtp_2
*I *2007:Y O *D sky130_fd_sc_hd__inv_2
*CAP
1 *2118:RESET_B 0.000184451
2 *2007:Y 0.000184451
3 *2118:RESET_B *684:48 5.58003e-05
4 *2118:RESET_B *745:25 1.22775e-06
*RES
1 *2007:Y *2118:RESET_B 25.9311 
*END

*D_NET *246 0.00127527
*CONN
*I *2119:RESET_B I *D sky130_fd_sc_hd__dfrtp_2
*I *2008:Y O *D sky130_fd_sc_hd__inv_2
*CAP
1 *2119:RESET_B 0
2 *2008:Y 0.00038282
3 *246:10 0.00038282
4 *246:10 *2009:A 0.000106277
5 *246:10 *247:8 0.000403353
*RES
1 *2008:Y *246:10 45.4779 
2 *246:10 *2119:RESET_B 15 
*END

*D_NET *247 0.00106521
*CONN
*I *2120:RESET_B I *D sky130_fd_sc_hd__dfrtp_2
*I *2009:Y O *D sky130_fd_sc_hd__inv_2
*CAP
1 *2120:RESET_B 0
2 *2009:Y 0.000330927
3 *247:8 0.000330927
4 *247:8 *470:10 0
5 *247:8 *688:41 0
6 *247:8 *688:56 0
7 *246:10 *247:8 0.000403353
*RES
1 *2009:Y *247:8 45.1879 
2 *247:8 *2120:RESET_B 15 
*END

*D_NET *248 0.00375405
*CONN
*I *2121:SET_B I *D sky130_fd_sc_hd__dfstp_2
*I *2010:Y O *D sky130_fd_sc_hd__inv_2
*CAP
1 *2121:SET_B 0.000263135
2 *2010:Y 0.00102364
3 *248:6 0.00128677
4 *2121:SET_B *1650:A 9.85988e-06
5 *2121:SET_B *1925:A1 4.95815e-05
6 *2121:SET_B *1930:A1 1.11825e-05
7 *2121:SET_B *360:39 0
8 *2121:SET_B *527:38 1.13812e-05
9 *2121:SET_B *527:48 0.000213562
10 *2121:SET_B *532:10 0
11 *2121:SET_B *534:10 8.98298e-05
12 *2121:SET_B *549:55 4.97208e-05
13 *248:6 *1811:B 5.58003e-05
14 *248:6 *2010:A 0.000309205
15 *248:6 *361:8 1.52903e-05
16 *248:6 *532:10 0.000365093
*RES
1 *2010:Y *248:6 37.9143 
2 *248:6 *2121:SET_B 35.5411 
*END

*D_NET *249 0.00457318
*CONN
*I *2122:SET_B I *D sky130_fd_sc_hd__dfstp_2
*I *2011:Y O *D sky130_fd_sc_hd__inv_2
*CAP
1 *2122:SET_B 0.0010471
2 *2011:Y 0.000347269
3 *249:10 0.00139437
4 *2122:SET_B *527:30 4.53894e-05
5 *2122:SET_B *527:38 2.37428e-05
6 *2122:SET_B *529:10 5.58003e-05
7 *2122:SET_B *660:44 0.000722569
8 *2122:SET_B *664:8 0.000319992
9 *249:10 *278:18 8.24122e-05
10 *249:10 *625:58 8.6244e-05
11 *249:10 *647:38 8.56503e-06
12 *249:10 *651:8 0.00028359
13 *1:8 *2122:SET_B 0.000100486
14 *169:91 *249:10 5.56356e-05
*RES
1 *2011:Y *249:10 44.4007 
2 *249:10 *2122:SET_B 33.5911 
*END

*D_NET *250 0.000565318
*CONN
*I *2012:D I *D sky130_fd_sc_hd__dfrtp_2
*I *1773:X O *D sky130_fd_sc_hd__and2_2
*CAP
1 *2012:D 0
2 *1773:X 0.0002507
3 *250:10 0.0002507
4 *250:10 *1788:B1 4.33149e-05
5 *250:10 *555:14 3.7122e-06
6 *250:10 *555:29 1.6891e-05
*RES
1 *1773:X *250:10 41.6043 
2 *250:10 *2012:D 38 
*END

*D_NET *251 0.000570181
*CONN
*I *2017:D I *D sky130_fd_sc_hd__dfxtp_2
*I *1845:X O *D sky130_fd_sc_hd__o21a_2
*CAP
1 *2017:D 7.17495e-06
2 *1845:X 0.00016947
3 *251:10 0.000176645
4 *2017:D *481:22 1.64354e-05
5 *2017:D *536:20 1.64354e-05
6 *251:10 *1851:C 1.74126e-05
7 *251:10 *481:12 6.1496e-05
8 *251:10 *481:14 4.84057e-05
9 *251:10 *627:10 5.67058e-05
10 *251:10 *678:28 0
*RES
1 *1845:X *251:10 41.2314 
2 *251:10 *2017:D 38.1916 
*END

*D_NET *252 0.000552567
*CONN
*I *2018:D I *D sky130_fd_sc_hd__dfxtp_2
*I *1848:Y O *D sky130_fd_sc_hd__nor2_2
*CAP
1 *2018:D 0
2 *1848:Y 9.81334e-05
3 *252:12 9.81334e-05
4 *252:12 *2018:CLK 0.000128655
5 *252:12 *478:32 8.21278e-05
6 *252:12 *479:18 0.000145517
*RES
1 *1848:Y *252:12 27.2671 
2 *252:12 *2018:D 23 
*END

*D_NET *253 0.000267089
*CONN
*I *2019:D I *D sky130_fd_sc_hd__dfxtp_2
*I *1851:Y O *D sky130_fd_sc_hd__nor3_2
*CAP
1 *2019:D 5.98011e-06
2 *1851:Y 6.64082e-05
3 *253:8 7.23883e-05
4 *2019:D *484:6 1.64354e-05
5 *2019:D *678:86 4.41722e-06
6 *253:8 *1851:C 5.18573e-05
7 *253:8 *480:10 4.96024e-05
*RES
1 *1851:Y *253:8 39.5536 
2 *253:8 *2019:D 38.1916 
*END

*D_NET *254 0.00596947
*CONN
*I *2020:D I *D sky130_fd_sc_hd__dfxtp_2
*I *1855:X O *D sky130_fd_sc_hd__o21a_2
*CAP
1 *2020:D 0
2 *1855:X 0.000135438
3 *254:14 0.00137433
4 *254:8 0.00150977
5 *254:8 *481:22 6.17437e-06
6 *254:8 *680:36 4.29307e-05
7 *254:14 *1710:A2 0.000180218
8 *254:14 *1710:B1_N 9.41704e-05
9 *254:14 *1852:D 0.000488848
10 *254:14 *2020:CLK 8.828e-05
11 *254:14 *479:8 3.673e-05
12 *254:14 *484:12 0.00019741
13 *254:14 *568:16 0.000551348
14 *254:14 *659:14 0.000182826
15 *254:14 *662:60 9.5877e-05
16 *254:14 *662:73 8.6949e-05
17 *254:14 *663:57 9.41704e-05
18 *254:14 *665:6 2.78825e-05
19 *254:14 *666:16 9.32038e-05
20 *254:14 *666:22 7.44161e-06
21 *254:14 *675:33 0.000108673
22 *254:14 *677:10 0.000195316
23 *254:14 *677:27 0.000259539
24 *254:14 *705:22 0.000111933
*RES
1 *1855:X *254:8 40.0507 
2 *254:8 *254:14 47.8166 
3 *254:14 *2020:D 23 
*END

*D_NET *255 0.00034682
*CONN
*I *2021:D I *D sky130_fd_sc_hd__dfxtp_2
*I *1857:X O *D sky130_fd_sc_hd__o21a_2
*CAP
1 *2021:D 1.00796e-05
2 *1857:X 3.93847e-05
3 *255:8 4.94642e-05
4 *2021:D *1865:C 1.74843e-05
5 *255:8 *1863:A1 0.000116314
6 *255:8 *491:23 0.000114092
*RES
1 *1857:X *255:8 39.5536 
2 *255:8 *2021:D 38.1916 
*END

*D_NET *256 0.000397974
*CONN
*I *2022:D I *D sky130_fd_sc_hd__dfxtp_2
*I *1860:Y O *D sky130_fd_sc_hd__nor3_2
*CAP
1 *2022:D 8.59297e-05
2 *1860:Y 8.59297e-05
3 *2022:D *2022:CLK 6.09117e-05
4 *2022:D *487:20 1.03955e-05
5 *2022:D *492:26 0.000154808
*RES
1 *1860:Y *2022:D 48.5893 
*END

*D_NET *257 0.00300846
*CONN
*I *2023:D I *D sky130_fd_sc_hd__dfxtp_2
*I *1863:X O *D sky130_fd_sc_hd__o21a_2
*CAP
1 *2023:D 0.000540723
2 *1863:X 0.000412522
3 *257:10 0.000953245
4 *2023:D *1865:A 9.41704e-05
5 *2023:D *1865:C 0.000334759
6 *2023:D *1865:D 4.05745e-05
7 *2023:D *2021:CLK 8.48502e-06
8 *257:10 *1863:A1 0.000313267
9 *257:10 *1863:A2 0.000181131
10 *257:10 *2140:A 0.000114083
11 *257:10 *482:34 0
12 *257:10 *495:16 1.54983e-05
*RES
1 *1863:X *257:10 45.4986 
2 *257:10 *2023:D 45.83 
*END

*D_NET *258 0.00181265
*CONN
*I *2024:D I *D sky130_fd_sc_hd__dfxtp_2
*I *1867:Y O *D sky130_fd_sc_hd__nor3_2
*CAP
1 *2024:D 6.14623e-05
2 *1867:Y 0.000601436
3 *258:12 0.000662898
4 *2024:D *543:16 0.00014884
5 *258:12 *1864:B 0
6 *258:12 *1865:A 0
7 *258:12 *2022:CLK 0
8 *258:12 *543:66 0
9 *258:12 *640:10 0
10 *258:12 *668:8 0
11 *258:12 *668:24 0.000191419
12 *258:12 *669:10 0
13 *258:12 *677:60 0.000141975
14 *258:12 *697:24 4.61454e-06
*RES
1 *1867:Y *258:12 49.4757 
2 *258:12 *2024:D 39.6209 
*END

*D_NET *259 0.0031782
*CONN
*I *2025:D I *D sky130_fd_sc_hd__dfxtp_2
*I *1869:Y O *D sky130_fd_sc_hd__a21oi_2
*CAP
1 *2025:D 0.000439682
2 *1869:Y 0.000554952
3 *259:12 0.000994635
4 *2025:D *1876:A1 0.00013961
5 *2025:D *1876:B1 9.94357e-05
6 *2025:D *1888:A 7.42621e-05
7 *2025:D *492:95 0.000348811
8 *2025:D *498:10 5.3304e-05
9 *259:12 *2200:A 0
10 *259:12 *496:54 0.00015617
11 *259:12 *499:8 0
12 *259:12 *499:25 0.000194309
13 *259:12 *559:50 0.000105057
14 *259:12 *703:10 0
15 *169:26 *259:12 1.79749e-05
*RES
1 *1869:Y *259:12 49.4757 
2 *259:12 *2025:D 47.513 
*END

*D_NET *260 0.00111894
*CONN
*I *2026:D I *D sky130_fd_sc_hd__dfxtp_2
*I *1872:Y O *D sky130_fd_sc_hd__nor3_2
*CAP
1 *2026:D 0.000145572
2 *1872:Y 0.000228281
3 *260:8 0.000373853
4 *260:8 *495:43 0.000371239
*RES
1 *1872:Y *260:8 43.075 
2 *260:8 *2026:D 40.0973 
*END

*D_NET *261 0.00156916
*CONN
*I *2027:D I *D sky130_fd_sc_hd__dfxtp_2
*I *1875:X O *D sky130_fd_sc_hd__o211a_2
*CAP
1 *2027:D 5.54559e-05
2 *1875:X 0.000322965
3 *261:12 0.000378421
4 *2027:D *2028:CLK 0.000145274
5 *2027:D *497:10 4.59522e-05
6 *261:12 *1875:A1 7.80291e-06
7 *261:12 *497:10 0.000290624
8 *261:12 *543:37 0
9 *261:12 *603:12 8.29264e-05
10 *261:12 *686:10 0.000206534
11 *261:12 *703:29 3.32045e-05
*RES
1 *1875:X *261:12 45.1464 
2 *261:12 *2027:D 39.6209 
*END

*D_NET *262 0.00123188
*CONN
*I *2028:D I *D sky130_fd_sc_hd__dfxtp_2
*I *1878:Y O *D sky130_fd_sc_hd__nor3_2
*CAP
1 *2028:D 0.000111577
2 *1878:Y 0.000115258
3 *262:10 0.000226835
4 *2028:D *1874:B 9.95543e-06
5 *2028:D *496:26 8.71694e-05
6 *262:10 *1878:C 9.91101e-05
7 *262:10 *496:54 0.000219882
8 *262:10 *498:10 0.000222113
9 *262:10 *559:50 0.000139977
*RES
1 *1878:Y *262:10 42.5364 
2 *262:10 *2028:D 40.0973 
*END

*D_NET *263 0.00130782
*CONN
*I *2029:D I *D sky130_fd_sc_hd__dfxtp_2
*I *1883:X O *D sky130_fd_sc_hd__o211a_2
*CAP
1 *2029:D 0.000199749
2 *1883:X 0.000192121
3 *263:10 0.00039187
4 *263:10 *1883:A1 5.50049e-05
5 *263:10 *1883:B1 1.03955e-05
6 *263:10 *2208:A 9.31593e-05
7 *263:10 *492:79 0.000180218
8 *263:10 *496:18 0.000141888
9 *263:10 *504:19 4.34173e-05
*RES
1 *1883:X *263:10 42.9093 
2 *263:10 *2029:D 41.0502 
*END

*D_NET *264 0.00401842
*CONN
*I *2030:D I *D sky130_fd_sc_hd__dfxtp_2
*I *1886:Y O *D sky130_fd_sc_hd__nor2_2
*CAP
1 *2030:D 0.000406966
2 *1886:Y 0.000759567
3 *264:10 0.00116653
4 *2030:D *1871:B 0.00049631
5 *2030:D *1879:B 6.74166e-05
6 *2030:D *492:43 4.69926e-05
7 *2030:D *501:14 5.36943e-05
8 *2030:D *505:8 0.000313046
9 *2030:D *686:37 5.3304e-05
10 *264:10 *1886:B 0.000636938
11 *264:10 *681:94 1.76557e-05
*RES
1 *1886:Y *264:10 49.1236 
2 *264:10 *2030:D 47.9895 
*END

*D_NET *265 0.00111724
*CONN
*I *2031:D I *D sky130_fd_sc_hd__dfxtp_2
*I *1889:X O *D sky130_fd_sc_hd__o21a_2
*CAP
1 *2031:D 0
2 *1889:X 0.00035232
3 *265:6 0.00035232
4 *265:6 *1889:B1 0.000396689
5 *265:6 *560:8 1.59094e-05
*RES
1 *1889:X *265:6 30.8145 
2 *265:6 *2031:D 23 
*END

*D_NET *266 0.000464607
*CONN
*I *2032:D I *D sky130_fd_sc_hd__dfxtp_2
*I *1892:Y O *D sky130_fd_sc_hd__nor3_2
*CAP
1 *2032:D 7.17495e-06
2 *1892:Y 0.000111181
3 *266:10 0.000118356
4 *2032:D *1896:D 1.64354e-05
5 *2032:D *2032:CLK 1.64354e-05
6 *266:10 *1892:A 0.000108681
7 *266:10 *508:12 2.96369e-05
8 *266:10 *688:41 5.67058e-05
*RES
1 *1892:Y *266:10 40.175 
2 *266:10 *2032:D 38.1916 
*END

*D_NET *267 0.000410684
*CONN
*I *2033:D I *D sky130_fd_sc_hd__dfxtp_2
*I *1894:X O *D sky130_fd_sc_hd__o21ba_2
*CAP
1 *2033:D 7.46442e-05
2 *1894:X 7.09182e-05
3 *267:8 0.000145562
4 *2033:D *508:12 3.24476e-06
5 *267:8 *563:41 0.000116314
6 *267:8 *682:21 0
*RES
1 *1894:X *267:8 39.5536 
2 *267:8 *2033:D 39.1445 
*END

*D_NET *268 0.00104382
*CONN
*I *2034:D I *D sky130_fd_sc_hd__dfxtp_2
*I *1897:Y O *D sky130_fd_sc_hd__nor3_2
*CAP
1 *2034:D 2.98194e-05
2 *1897:Y 0.000248951
3 *268:10 0.000278771
4 *2034:D *509:40 3.32987e-05
5 *2034:D *682:42 4.9127e-05
6 *268:10 *2256:A 6.48142e-05
7 *268:10 *562:40 6.48142e-05
8 *268:10 *562:69 3.16665e-05
9 *268:10 *682:44 0.000242557
*RES
1 *1897:Y *268:10 43.1164 
2 *268:10 *2034:D 38.9943 
*END

*D_NET *269 0.00148454
*CONN
*I *2035:D I *D sky130_fd_sc_hd__dfxtp_2
*I *1899:X O *D sky130_fd_sc_hd__o21a_2
*CAP
1 *2035:D 3.89484e-05
2 *1899:X 0.000297142
3 *269:8 0.000336091
4 *2035:D *564:46 5.73018e-05
5 *269:8 *1898:B1 0
6 *269:8 *1899:A2 7.75329e-06
7 *269:8 *2025:CLK 0.000551836
8 *269:8 *512:14 7.35388e-05
9 *269:8 *513:10 5.80963e-05
10 *269:8 *546:16 6.38342e-05
*RES
1 *1899:X *269:8 46.2443 
2 *269:8 *2035:D 38.668 
*END

*D_NET *270 0.000493509
*CONN
*I *2036:D I *D sky130_fd_sc_hd__dfxtp_2
*I *1902:Y O *D sky130_fd_sc_hd__nor3_2
*CAP
1 *2036:D 1.26909e-05
2 *1902:Y 0.000158982
3 *270:10 0.000171673
4 *2036:D *2036:CLK 8.15899e-06
5 *270:10 *1902:C 7.51453e-06
6 *270:10 *515:16 0.00013449
*RES
1 *1902:Y *270:10 40.5271 
2 *270:10 *2036:D 38.1916 
*END

*D_NET *271 0.00127291
*CONN
*I *2037:D I *D sky130_fd_sc_hd__dfxtp_2
*I *1905:X O *D sky130_fd_sc_hd__o21a_2
*CAP
1 *2037:D 0
2 *1905:X 0.000358693
3 *271:6 0.000358693
4 *271:6 *516:14 0.000189848
5 *271:6 *517:10 0.000316273
6 *271:6 *535:337 4.94011e-05
*RES
1 *1905:X *271:6 30.6073 
2 *271:6 *2037:D 23 
*END

*D_NET *272 0.00398139
*CONN
*I *2038:D I *D sky130_fd_sc_hd__dfxtp_2
*I *1907:X O *D sky130_fd_sc_hd__o21a_2
*CAP
1 *2038:D 0
2 *1907:X 0
3 *272:12 0.00102728
4 *272:6 0.00102728
5 *272:12 *1914:B1 7.38547e-05
6 *272:12 *518:10 0.000101186
7 *272:12 *520:31 0.0004287
8 *272:12 *547:8 7.03766e-05
9 *272:12 *547:19 0.000113594
10 *272:12 *547:30 0.000104143
11 *272:12 *547:39 0.000114347
12 *272:12 *547:52 2.54043e-05
13 *272:12 *591:8 8.05415e-05
14 *272:12 *657:10 7.89973e-05
15 *272:12 *670:29 0
16 *272:12 *682:68 0.000621211
17 *169:18 *272:12 0.000114474
*RES
1 *1907:X *272:6 38 
2 *272:6 *272:12 38.4123 
3 *272:12 *2038:D 23 
*END

*D_NET *273 0.00137642
*CONN
*I *2039:D I *D sky130_fd_sc_hd__dfxtp_2
*I *1910:Y O *D sky130_fd_sc_hd__nor3_2
*CAP
1 *2039:D 3.95181e-05
2 *1910:Y 0.000391658
3 *273:10 0.000431176
4 *2039:D *2039:CLK 8.94508e-05
5 *273:10 *1910:A 0.000106318
6 *273:10 *1911:A 0.00024312
7 *273:10 *546:79 0
8 *273:10 *569:41 0
9 *104:10 *273:10 7.51785e-05
*RES
1 *1910:Y *273:10 46.3479 
2 *273:10 *2039:D 38.9943 
*END

*D_NET *274 0.00382621
*CONN
*I *2040:D I *D sky130_fd_sc_hd__dfxtp_2
*I *1913:X O *D sky130_fd_sc_hd__o21a_2
*CAP
1 *2040:D 0
2 *1913:X 0.000114793
3 *274:20 0.00146003
4 *274:8 0.00157482
5 *274:8 *522:16 0.000172008
6 *274:8 *685:51 8.85189e-05
7 *274:8 *688:56 3.81927e-05
8 *274:8 *740:44 0.000182473
9 *274:20 *2040:CLK 1.00084e-05
10 *274:20 *520:18 3.07818e-05
11 *274:20 *591:42 9.69173e-06
12 *274:20 *602:35 9.27295e-05
13 *122:12 *274:20 0
14 *126:12 *274:20 5.21655e-05
*RES
1 *1913:X *274:8 42.5468 
2 *274:8 *274:20 36.4158 
3 *274:20 *2040:D 23 
*END

*D_NET *275 0.00129235
*CONN
*I *2041:D I *D sky130_fd_sc_hd__dfxtp_2
*I *1915:X O *D sky130_fd_sc_hd__o21a_2
*CAP
1 *2041:D 0.000148369
2 *1915:X 0.000133217
3 *275:8 0.000281586
4 *2041:D *516:42 0.000141648
5 *2041:D *570:16 0.000310336
6 *275:8 *1915:B1 0.000166666
7 *275:8 *638:12 0.000110532
*RES
1 *1915:X *275:8 42.3707 
2 *275:8 *2041:D 41.5266 
*END

*D_NET *276 0.00189394
*CONN
*I *2042:D I *D sky130_fd_sc_hd__dfxtp_2
*I *1918:Y O *D sky130_fd_sc_hd__nor2_2
*CAP
1 *2042:D 0.000205362
2 *1918:Y 0.0002135
3 *276:8 0.000418862
4 *2042:D *2042:CLK 5.12254e-05
5 *2042:D *2206:A 7.53384e-06
6 *276:8 *1918:B 0.000120739
7 *276:8 *2279:A 2.72055e-05
8 *276:8 *547:30 0.000163361
9 *276:8 *547:39 0.000259355
10 *276:8 *547:52 9.96322e-05
11 *276:8 *625:39 3.35885e-06
12 *276:8 *670:29 0.000323803
*RES
1 *1918:Y *276:8 45.1879 
2 *276:8 *2042:D 40.843 
*END

*D_NET *277 0.00181698
*CONN
*I *2043:D I *D sky130_fd_sc_hd__dfxtp_2
*I *1922:X O *D sky130_fd_sc_hd__and3_2
*CAP
1 *2043:D 0
2 *1922:X 0.000102626
3 *277:18 0.000617644
4 *277:8 0.00072027
5 *277:8 *528:32 1.05235e-05
6 *277:18 *2278:A 0
7 *277:18 *323:10 0.000107508
8 *277:18 *526:20 3.673e-05
9 *277:18 *547:45 9.04092e-05
10 *277:18 *582:12 0
11 *277:18 *660:14 0
12 pcRegister[28] *277:18 0.000131273
13 *109:10 *277:18 0
14 *114:10 *277:18 0
*RES
1 *1922:X *277:8 39.5743 
2 *277:8 *277:18 27.47 
3 *277:18 *2043:D 23 
*END

*D_NET *278 0.00361111
*CONN
*I *2044:D I *D sky130_fd_sc_hd__dfxtp_2
*I *1924:Y O *D sky130_fd_sc_hd__a21oi_2
*CAP
1 *2044:D 0.000102484
2 *1924:Y 8.27431e-05
3 *278:18 0.000891164
4 *278:10 0.000871424
5 *2044:D *547:79 5.76359e-05
6 *2044:D *658:21 0.00012948
7 *2044:D *658:36 0.000230471
8 *278:10 *1924:A1 8.74539e-05
9 *278:10 *527:23 2.2385e-05
10 *278:10 *531:12 9.41704e-05
11 *278:10 *660:52 8.8725e-05
12 *278:10 *688:95 2.19403e-05
13 *278:18 *524:8 0.000345687
14 *278:18 *531:12 1.71615e-05
15 *278:18 *547:71 8.58827e-05
16 *278:18 *547:79 2.85501e-06
17 *278:18 *625:58 0.00018277
18 *278:18 *651:8 1.31002e-05
19 *278:18 *661:27 2.03764e-06
20 *278:18 *670:125 1.35714e-05
21 *278:18 *687:63 3.67392e-05
22 *278:18 *688:95 9.66585e-05
23 *123:10 *2044:D 1.04756e-05
24 *169:91 *2044:D 4.16795e-05
25 *249:10 *278:18 8.24122e-05
*RES
1 *1924:Y *278:10 40.2993 
2 *278:10 *278:18 41.3307 
3 *278:18 *2044:D 41.7959 
*END

*D_NET *279 0.00672664
*CONN
*I *2045:D I *D sky130_fd_sc_hd__dfxtp_2
*I *1928:X O *D sky130_fd_sc_hd__and2b_2
*CAP
1 *2045:D 0
2 *1928:X 9.22272e-05
3 *279:20 0.00264318
4 *279:10 0.0027354
5 *279:10 *530:10 5.60117e-05
6 *279:20 *2277:A 2.05503e-05
7 *279:20 *528:32 0.000365483
8 *279:20 *547:71 0.000178134
9 *279:20 *625:58 0.000116553
10 *279:20 *651:18 0.000263915
11 *279:20 *661:27 0.000102551
12 red[3] *279:20 0
13 *16:12 *279:20 9.60814e-07
14 *114:10 *279:20 5.61255e-06
15 *127:12 *279:20 6.06471e-05
16 *169:91 *279:20 8.54204e-05
*RES
1 *1928:X *279:10 47.7296 
2 *279:10 *279:20 34.2778 
3 *279:20 *2045:D 23 
*END

*D_NET *280 0.000444006
*CONN
*I *2046:D I *D sky130_fd_sc_hd__dfxtp_2
*I *1931:X O *D sky130_fd_sc_hd__and3_2
*CAP
1 *2046:D 6.85826e-05
2 *1931:X 6.85826e-05
3 *2046:D *658:36 0.000170984
4 *169:79 *2046:D 0.000135857
*RES
1 *1931:X *2046:D 48.3873 
*END

*D_NET *281 0.000520887
*CONN
*I *2047:D I *D sky130_fd_sc_hd__dfrtp_2
*I *1768:X O *D sky130_fd_sc_hd__o21a_2
*CAP
1 *2047:D 0
2 *1768:X 0.000149934
3 *281:10 0.000149934
4 *281:10 *1768:A1 2.4754e-05
5 *281:10 *1768:A2 0.000196266
6 *281:10 *434:8 0
*RES
1 *1768:X *281:10 41.0036 
2 *281:10 *2047:D 38 
*END

*D_NET *282 0.000266476
*CONN
*I *2048:D I *D sky130_fd_sc_hd__dfrtp_2
*I *1752:X O *D sky130_fd_sc_hd__o21a_2
*CAP
1 *2048:D 0
2 *1752:X 7.70402e-05
3 *282:8 7.70402e-05
4 *282:8 *433:20 0.000112396
*RES
1 *1752:X *282:8 39.5536 
2 *282:8 *2048:D 38 
*END

*D_NET *283 0.000578702
*CONN
*I *2049:D I *D sky130_fd_sc_hd__dfrtp_2
*I *1767:X O *D sky130_fd_sc_hd__o21a_2
*CAP
1 *2049:D 0
2 *1767:X 0.000179328
3 *283:10 0.000179328
4 *283:10 *1767:A2 3.68285e-05
5 *283:10 *550:78 3.87236e-05
6 *283:10 *701:24 0.000144494
*RES
1 *1767:X *283:10 41.48 
2 *283:10 *2049:D 38 
*END

*D_NET *284 0.00197011
*CONN
*I *2050:D I *D sky130_fd_sc_hd__dfrtp_2
*I *1766:Y O *D sky130_fd_sc_hd__a21boi_2
*CAP
1 *2050:D 0.000237576
2 *1766:Y 0.000217292
3 *284:10 0.000454867
4 *2050:D *556:10 0.000264232
5 *284:10 *427:30 0.000122115
6 *284:10 *556:41 9.82009e-05
7 *284:10 *690:54 0.000201739
8 *284:10 *690:75 0.000208692
9 *284:10 *694:92 0.000165394
*RES
1 *1766:Y *284:10 44.8771 
2 *284:10 *2050:D 43.3857 
*END

*D_NET *285 0.000314359
*CONN
*I *2051:D I *D sky130_fd_sc_hd__dfrtp_2
*I *1764:X O *D sky130_fd_sc_hd__and2_2
*CAP
1 *2051:D 0
2 *1764:X 0.000110305
3 *285:10 0.000110305
4 *285:10 *550:12 3.81391e-05
5 *285:10 *731:122 5.561e-05
*RES
1 *1764:X *285:10 40.175 
2 *285:10 *2051:D 38 
*END

*D_NET *286 0.000524268
*CONN
*I *2052:D I *D sky130_fd_sc_hd__dfrtp_2
*I *1763:X O *D sky130_fd_sc_hd__a22o_2
*CAP
1 *2052:D 0
2 *1763:X 0.000127826
3 *286:10 0.000127826
4 *286:10 *1763:A1 5.41288e-05
5 *286:10 *443:8 0.00014411
6 *286:10 *731:122 7.03766e-05
*RES
1 *1763:X *286:10 41.0036 
2 *286:10 *2052:D 38 
*END

*D_NET *287 0.000882519
*CONN
*I *2053:D I *D sky130_fd_sc_hd__dfrtp_2
*I *1757:X O *D sky130_fd_sc_hd__mux2_1
*CAP
1 *2053:D 0.000158806
2 *1757:X 0.000191737
3 *287:8 0.000350544
4 *287:8 *436:12 0
5 *287:8 *438:10 0
6 *287:8 *731:122 0.000181432
*RES
1 *1757:X *287:8 42.7229 
2 *287:8 *2053:D 40.5271 
*END

*D_NET *288 0.000503318
*CONN
*I *2054:D I *D sky130_fd_sc_hd__dfrtp_2
*I *1740:X O *D sky130_fd_sc_hd__o22a_2
*CAP
1 *2054:D 0
2 *1740:X 0.000167232
3 *288:10 0.000167232
4 *288:10 *423:8 5.33272e-05
5 *288:10 *692:42 0.000115526
*RES
1 *1740:X *288:10 41.1279 
2 *288:10 *2054:D 38 
*END

*D_NET *289 0.00122102
*CONN
*I *2055:D I *D sky130_fd_sc_hd__dfrtp_2
*I *1736:X O *D sky130_fd_sc_hd__o31a_2
*CAP
1 *2055:D 0.000312459
2 *1736:X 0.000202637
3 *289:8 0.000515096
4 *289:8 *1612:A 0
5 *289:8 *718:10 0
6 *13:10 *289:8 0.000190827
*RES
1 *1736:X *289:8 42.7229 
2 *289:8 *2055:D 43.3857 
*END

*D_NET *290 0.000627029
*CONN
*I *2056:D I *D sky130_fd_sc_hd__dfrtp_2
*I *1735:X O *D sky130_fd_sc_hd__o21a_2
*CAP
1 *2056:D 0.000144753
2 *1735:X 5.20005e-05
3 *290:8 0.000196753
4 *2056:D *2056:CLK 0.000106478
5 *290:8 *692:78 8.57577e-05
6 *13:10 *290:8 4.12864e-05
*RES
1 *1735:X *290:8 39.2014 
2 *290:8 *2056:D 40.118 
*END

*D_NET *291 0.00306752
*CONN
*I *2057:D I *D sky130_fd_sc_hd__dfrtp_2
*I *1733:X O *D sky130_fd_sc_hd__or2_2
*CAP
1 *2057:D 8.61824e-05
2 *1733:X 9.70657e-05
3 *291:18 0.000920305
4 *291:10 0.000931188
5 *2057:D *2057:CLK 5.45541e-05
6 *2057:D *478:22 0.000186032
7 *2057:D *723:8 3.00511e-05
8 *291:10 *1730:A 3.22051e-05
9 *291:10 *292:10 9.11007e-05
10 *291:10 *414:10 8.16757e-06
11 *291:18 *1732:B1 6.51997e-06
12 *291:18 *418:10 4.92798e-05
13 *291:18 *418:22 9.66585e-05
14 *291:18 *478:18 0.000255363
15 *291:18 *680:36 2.03719e-05
16 *291:18 *724:8 0.000113235
17 *2058:RESET_B *291:18 6.51972e-05
18 *185:10 *291:10 2.40392e-05
*RES
1 *1733:X *291:10 40.175 
2 *291:10 *291:18 42.5114 
3 *291:18 *2057:D 40.5271 
*END

*D_NET *292 0.00100906
*CONN
*I *2058:D I *D sky130_fd_sc_hd__dfrtp_2
*I *1730:X O *D sky130_fd_sc_hd__or2_2
*CAP
1 *2058:D 0
2 *1730:X 0.000310432
3 *292:10 0.000310432
4 *292:10 *1730:A 5.87871e-05
5 *292:10 *414:10 0.000138872
6 *185:10 *292:10 9.94414e-05
7 *291:10 *292:10 9.11007e-05
*RES
1 *1730:X *292:10 43.3857 
2 *292:10 *2058:D 38 
*END

*D_NET *293 0.000325138
*CONN
*I *2059:D I *D sky130_fd_sc_hd__dfrtp_2
*I *1722:X O *D sky130_fd_sc_hd__o31a_2
*CAP
1 *2059:D 0
2 *1722:X 5.74222e-05
3 *293:8 5.74222e-05
4 *293:8 *1722:A1 0.000140949
5 *293:8 *535:15 6.93449e-05
*RES
1 *1722:X *293:8 39.9057 
2 *293:8 *2059:D 38 
*END

*D_NET *294 0.00116962
*CONN
*I *2060:D I *D sky130_fd_sc_hd__dfrtp_2
*I *1721:X O *D sky130_fd_sc_hd__o31a_2
*CAP
1 *2060:D 0
2 *1721:X 0.000398003
3 *294:10 0.000398003
4 *294:10 *1616:A 1.14452e-05
5 *294:10 *2185:A 0.000117159
6 *294:10 *451:14 0.000125688
7 *294:10 *551:37 0.000119323
8 *294:10 *681:69 0
9 *211:8 *294:10 0
*RES
1 *1721:X *294:10 46.7829 
2 *294:10 *2060:D 38 
*END

*D_NET *295 0.000676605
*CONN
*I *2061:D I *D sky130_fd_sc_hd__dfrtp_2
*I *1720:Y O *D sky130_fd_sc_hd__a21boi_2
*CAP
1 *2061:D 0
2 *1720:Y 0.000133119
3 *295:10 0.000133119
4 *295:10 *2100:CLK 9.79925e-05
5 *295:10 *326:19 5.5792e-05
6 *295:10 *413:31 0.000193072
7 *295:10 *449:31 6.35097e-05
8 *295:10 *579:18 0
*RES
1 *1720:Y *295:10 41.7079 
2 *295:10 *2061:D 38 
*END

*D_NET *296 0.000490569
*CONN
*I *2062:D I *D sky130_fd_sc_hd__dfrtp_2
*I *1718:X O *D sky130_fd_sc_hd__a21o_2
*CAP
1 *2062:D 0
2 *1718:X 0.000107068
3 *296:10 0.000107068
4 *296:10 *1951:A 5.3304e-05
5 *296:10 *2092:CLK 2.64616e-05
6 *296:10 *407:12 1.83564e-05
7 *296:10 *407:25 4.49946e-05
8 *296:10 *537:22 0.000133316
*RES
1 *1718:X *296:10 40.5271 
2 *296:10 *2062:D 38 
*END

*D_NET *297 0.000642481
*CONN
*I *2063:D I *D sky130_fd_sc_hd__dfrtp_2
*I *1713:Y O *D sky130_fd_sc_hd__o31ai_2
*CAP
1 *2063:D 4.54044e-05
2 *1713:Y 0.000105655
3 *297:8 0.000151059
4 *2063:D *679:48 2.64616e-05
5 *297:8 *492:43 0.000212387
6 *297:8 *666:10 0.000101514
*RES
1 *1713:Y *297:8 40.9621 
2 *297:8 *2063:D 38.6214 
*END

*D_NET *298 0.00196419
*CONN
*I *2064:D I *D sky130_fd_sc_hd__dfrtp_2
*I *1711:X O *D sky130_fd_sc_hd__o21ba_2
*CAP
1 *2064:D 0.000175284
2 *1711:X 0.000286486
3 *298:8 0.00046177
4 *2064:D *484:6 2.82245e-05
5 *298:8 *1710:B1_N 3.11878e-05
6 *298:8 *1853:A 1.14452e-05
7 *298:8 *299:8 0.000267915
8 *298:8 *447:30 0.000580796
9 *2064:RESET_B *2064:D 0.000121078
*RES
1 *1711:X *298:8 45.8921 
2 *298:8 *2064:D 41.48 
*END

*D_NET *299 0.000972402
*CONN
*I *2065:D I *D sky130_fd_sc_hd__dfrtp_2
*I *1710:X O *D sky130_fd_sc_hd__o21ba_2
*CAP
1 *2065:D 7.34295e-05
2 *1710:X 0.000151313
3 *299:8 0.000224743
4 *2065:D *568:10 9.82196e-05
5 *2065:D *678:12 9.51286e-05
6 *299:8 *1710:B1_N 6.16531e-05
7 *299:8 *666:16 0
8 *299:8 *679:23 0
9 *299:8 *705:30 0
10 *192:8 *299:8 0
11 *298:8 *299:8 0.000267915
*RES
1 *1710:X *299:8 41.6664 
2 *299:8 *2065:D 40.0507 
*END

*D_NET *300 0.000720234
*CONN
*I *2066:D I *D sky130_fd_sc_hd__dfrtp_2
*I *1705:X O *D sky130_fd_sc_hd__and3_2
*CAP
1 *2066:D 2.73293e-05
2 *1705:X 0.000139811
3 *300:10 0.00016714
4 *2066:D *1689:A 5.58003e-05
5 *300:10 *1702:A2 5.50106e-05
6 *300:10 *1705:B 5.3304e-05
7 *300:10 *399:10 0
8 *300:10 *400:8 0.000221839
9 *300:10 *673:51 0
*RES
1 *1705:X *300:10 41.5836 
2 *300:10 *2066:D 38.6214 
*END

*D_NET *301 0.000560107
*CONN
*I *2067:D I *D sky130_fd_sc_hd__dfrtp_2
*I *1703:Y O *D sky130_fd_sc_hd__nor2_2
*CAP
1 *2067:D 0
2 *1703:Y 0.000199881
3 *301:10 0.000199881
4 *301:10 *673:34 5.79559e-05
5 *301:10 *673:51 0.000102389
*RES
1 *1703:Y *301:10 42.1843 
2 *301:10 *2067:D 38 
*END

*D_NET *302 0.000856968
*CONN
*I *2068:D I *D sky130_fd_sc_hd__dfrtp_2
*I *1701:X O *D sky130_fd_sc_hd__and2_2
*CAP
1 *2068:D 0
2 *1701:X 0.000237034
3 *302:10 0.000237034
4 *302:10 *385:48 5.70419e-05
5 *302:10 *398:10 0.000325859
6 *302:10 *756:10 0
*RES
1 *1701:X *302:10 43.4686 
2 *302:10 *2068:D 38 
*END

*D_NET *303 0.000316491
*CONN
*I *2069:D I *D sky130_fd_sc_hd__dfrtp_2
*I *1698:X O *D sky130_fd_sc_hd__and3_2
*CAP
1 *2069:D 0.000155158
2 *1698:X 0.000155158
3 *2069:D *765:8 6.17437e-06
*RES
1 *1698:X *2069:D 48.5479 
*END

*D_NET *304 0.000309577
*CONN
*I *2070:D I *D sky130_fd_sc_hd__dfrtp_2
*I *1696:Y O *D sky130_fd_sc_hd__nor2_2
*CAP
1 *2070:D 9.02755e-05
2 *1696:Y 9.02755e-05
3 *2070:D *388:6 3.7122e-06
4 *2070:D *388:25 4.56219e-05
5 *2070:D *542:51 7.59794e-05
6 *2070:D *766:14 3.7122e-06
*RES
1 *1696:Y *2070:D 48.0507 
*END

*D_NET *305 0.000948595
*CONN
*I *2071:D I *D sky130_fd_sc_hd__dfrtp_2
*I *1694:X O *D sky130_fd_sc_hd__xor2_2
*CAP
1 *2071:D 0.000253365
2 *1694:X 7.06092e-05
3 *305:8 0.000323974
4 *2071:D *767:12 7.27152e-05
5 *2071:D *767:14 0.000123944
6 *305:8 *542:43 0
7 *305:8 *642:8 5.80963e-05
8 *305:8 *700:59 4.58924e-05
*RES
1 *1694:X *305:8 39.9057 
2 *305:8 *2071:D 42.9093 
*END

*D_NET *306 0.0012981
*CONN
*I *2072:D I *D sky130_fd_sc_hd__dfrtp_2
*I *1693:Y O *D sky130_fd_sc_hd__xnor2_2
*CAP
1 *2072:D 0
2 *1693:Y 0.00036593
3 *306:10 0.00036593
4 *306:10 *2073:CLK 0.00014698
5 *306:10 *314:10 0.000110481
6 *306:10 *377:20 9.11685e-05
7 *306:10 *383:25 0
8 *306:10 *535:245 0
9 *306:10 *542:10 0.000191148
10 *306:10 *542:14 2.64616e-05
*RES
1 *1693:Y *306:10 46.555 
2 *306:10 *2072:D 38 
*END

*D_NET *307 0.00147492
*CONN
*I *2073:D I *D sky130_fd_sc_hd__dfrtp_2
*I *1692:X O *D sky130_fd_sc_hd__xor2_2
*CAP
1 *2073:D 0
2 *1692:X 0.000392066
3 *307:10 0.000392066
4 *307:10 *699:58 0.000428682
5 *307:10 *767:75 0.000195238
6 *307:10 *768:38 6.6869e-05
7 *307:10 *769:63 0
*RES
1 *1692:X *307:10 46.7829 
2 *307:10 *2073:D 38 
*END

*D_NET *308 0.000293844
*CONN
*I *2074:D I *D sky130_fd_sc_hd__dfrtp_2
*I *1683:Y O *D sky130_fd_sc_hd__nor2_2
*CAP
1 *2074:D 0
2 *1683:Y 5.06783e-05
3 *308:8 5.06783e-05
4 *308:8 *540:44 4.83778e-05
5 *308:8 *696:61 0.00014411
*RES
1 *1683:Y *308:8 39.9057 
2 *308:8 *2074:D 38 
*END

*D_NET *309 0.00122979
*CONN
*I *2075:D I *D sky130_fd_sc_hd__dfrtp_2
*I *1681:X O *D sky130_fd_sc_hd__o211a_2
*CAP
1 *2075:D 0
2 *1681:X 0.000384647
3 *309:16 0.000384647
4 *309:16 *1674:A 5.65647e-05
5 *309:16 *368:39 0.000148615
6 *309:16 *373:8 2.78179e-05
7 *309:16 *379:12 0
8 *309:16 *535:239 0.000102641
9 *309:16 *674:58 0
10 *309:16 *696:112 1.65046e-05
11 *309:16 *771:30 0
12 *202:10 *309:16 0.000108352
*RES
1 *1681:X *309:16 44.7529 
2 *309:16 *2075:D 38 
*END

*D_NET *310 0.000615675
*CONN
*I *2076:D I *D sky130_fd_sc_hd__dfrtp_2
*I *1674:Y O *D sky130_fd_sc_hd__nor2_2
*CAP
1 *2076:D 0
2 *1674:Y 0.000226093
3 *310:8 0.000226093
4 *310:8 *368:39 5.28962e-05
5 *310:8 *379:12 0
6 *202:10 *310:8 0.000110593
*RES
1 *1674:Y *310:8 42.7229 
2 *310:8 *2076:D 38 
*END

*D_NET *311 0.000699523
*CONN
*I *2077:D I *D sky130_fd_sc_hd__dfrtp_2
*I *1672:X O *D sky130_fd_sc_hd__xor2_2
*CAP
1 *2077:D 7.03329e-05
2 *1672:X 0.000199788
3 *311:10 0.000270121
4 *2077:D *701:92 8.1796e-05
5 *311:10 *1671:B 4.6318e-06
6 *311:10 *312:8 7.28526e-05
7 *311:10 *695:14 0
8 *203:8 *311:10 0
*RES
1 *1672:X *311:10 41.8321 
2 *311:10 *2077:D 39.5743 
*END

*D_NET *312 0.000631376
*CONN
*I *2078:D I *D sky130_fd_sc_hd__dfrtp_2
*I *1671:X O *D sky130_fd_sc_hd__xor2_2
*CAP
1 *2078:D 0
2 *1671:X 0.000185373
3 *312:8 0.000185373
4 *312:8 *695:14 0.000187779
5 *312:8 *698:37 0
6 *311:10 *312:8 7.28526e-05
*RES
1 *1671:X *312:8 43.075 
2 *312:8 *2078:D 38 
*END

*D_NET *313 0.000953864
*CONN
*I *2079:D I *D sky130_fd_sc_hd__dfrtp_2
*I *1670:Y O *D sky130_fd_sc_hd__nor2_2
*CAP
1 *2079:D 0
2 *1670:Y 0.000162763
3 *313:10 0.000162763
4 *313:10 *375:17 0.000226306
5 *313:10 *377:8 9.58714e-05
6 *313:10 *377:20 0.000141879
7 *313:10 *701:82 0.000164282
*RES
1 *1670:Y *313:10 42.785 
2 *313:10 *2079:D 38 
*END

*D_NET *314 0.0021564
*CONN
*I *2080:D I *D sky130_fd_sc_hd__dfrtp_2
*I *1668:X O *D sky130_fd_sc_hd__and2_2
*CAP
1 *2080:D 6.89057e-05
2 *1668:X 0.000639575
3 *314:10 0.000708481
4 *2080:D *700:35 5.70419e-05
5 *314:10 *2072:CLK 0.000193034
6 *314:10 *2130:A 3.26035e-05
7 *314:10 *376:22 5.95211e-05
8 *314:10 *377:20 0.000127485
9 *314:10 *535:245 0
10 *314:10 *541:10 0.000159276
11 *306:10 *314:10 0.000110481
*RES
1 *1668:X *314:10 49.745 
2 *314:10 *2080:D 39.595 
*END

*D_NET *315 0.000368589
*CONN
*I *2081:D I *D sky130_fd_sc_hd__dfrtp_2
*I *1666:Y O *D sky130_fd_sc_hd__xnor2_2
*CAP
1 *2081:D 0.00015723
2 *1666:Y 0.00015723
3 *2081:D *2081:CLK 5.41288e-05
*RES
1 *1666:Y *2081:D 48.5271 
*END

*D_NET *316 0.0026383
*CONN
*I *2082:D I *D sky130_fd_sc_hd__dfstp_2
*I *1644:X O *D sky130_fd_sc_hd__a31o_2
*CAP
1 *2082:D 0.00112823
2 *1644:X 8.97494e-05
3 *316:10 0.00121798
4 *316:10 *346:14 3.70094e-05
5 *316:10 *346:21 0.000121474
6 *316:10 *347:10 2.26385e-05
7 *316:10 *351:25 0
8 *132:10 *316:10 2.12147e-05
*RES
1 *1644:X *316:10 48.0818 
2 *316:10 *2082:D 49.1248 
*END

*D_NET *317 0.000628992
*CONN
*I *2179:A I *D sky130_fd_sc_hd__dlygate4sd3_1
*I *1642:Y O *D sky130_fd_sc_hd__a31oi_2
*CAP
1 *2179:A 0
2 *1642:Y 0.000265253
3 *317:6 0.000265253
4 *317:6 *1644:B1 9.84851e-05
*RES
1 *1642:Y *317:6 27.4329 
2 *317:6 *2179:A 23 
*END

*D_NET *318 0.000494946
*CONN
*I *2084:D I *D sky130_fd_sc_hd__dfrtp_2
*I *1632:X O *D sky130_fd_sc_hd__a22o_2
*CAP
1 *2084:D 4.01985e-05
2 *1632:X 0.000140395
3 *318:8 0.000180594
4 *318:8 *1628:C 5.09988e-05
5 *318:8 *340:30 5.31444e-05
6 *318:8 *344:10 2.96154e-05
7 *318:8 *551:33 0
*RES
1 *1632:X *318:8 40.9621 
2 *318:8 *2084:D 38.6214 
*END

*D_NET *319 0.000287467
*CONN
*I *2099:D I *D sky130_fd_sc_hd__dfrtp_2
*I *1832:Y O *D sky130_fd_sc_hd__nor2_2
*CAP
1 *2099:D 4.47319e-05
2 *1832:Y 7.14467e-05
3 *319:8 0.000116179
4 *319:8 *471:12 5.511e-05
*RES
1 *1832:Y *319:8 39.5536 
2 *319:8 *2099:D 38.6214 
*END

*D_NET *320 0.00185169
*CONN
*I *2100:D I *D sky130_fd_sc_hd__dfrtp_2
*I *1833:Y O *D sky130_fd_sc_hd__nor2_2
*CAP
1 *2100:D 4.91287e-05
2 *1833:Y 0.000405757
3 *320:8 0.000454886
4 *2100:D *701:24 1.05235e-05
5 *320:8 *1725:C 5.71002e-06
6 *320:8 *412:14 5.63804e-05
7 *320:8 *471:12 0.000592513
8 *320:8 *471:20 0.000108114
9 *320:8 *680:52 0.000168678
*RES
1 *1833:Y *320:8 48.7093 
2 *320:8 *2100:D 38.6214 
*END

*D_NET *321 0.00373346
*CONN
*I *1643:B1 I *D sky130_fd_sc_hd__a21oi_2
*I *1736:A1 I *D sky130_fd_sc_hd__o31a_2
*I *1605:Y O *D sky130_fd_sc_hd__inv_2
*CAP
1 *1643:B1 0.000590514
2 *1736:A1 0
3 *1605:Y 0
4 *321:14 0.000401746
5 *321:4 0.00099226
6 *1643:B1 *1634:B 0.0002263
7 *1643:B1 *1640:A0 4.67488e-05
8 *1643:B1 *1640:A1 6.53382e-05
9 *1643:B1 *353:8 0.000136717
10 *1643:B1 *775:14 5.50049e-05
11 *321:14 *1736:A2 5.93698e-05
12 *321:14 *1736:A3 0.000221084
13 *321:14 *1736:B1 0.000473945
14 *321:14 *346:8 3.17516e-05
15 *321:14 *538:65 0.000267942
16 *321:14 *565:10 3.33617e-05
17 *321:14 *694:67 8.86467e-05
18 *132:10 *1643:B1 4.27353e-05
*RES
1 *1605:Y *321:4 23 
2 *321:4 *321:14 40.9786 
3 *321:14 *1736:A1 23 
4 *321:4 *1643:B1 33.6679 
*END

*D_NET *322 0.00265277
*CONN
*I *1712:B1 I *D sky130_fd_sc_hd__a31o_2
*I *1708:B I *D sky130_fd_sc_hd__and4b_2
*I *1706:B I *D sky130_fd_sc_hd__and4b_2
*I *1606:Y O *D sky130_fd_sc_hd__inv_2
*CAP
1 *1712:B1 0
2 *1708:B 0
3 *1706:B 0
4 *1606:Y 0.000408026
5 *322:45 0.000180625
6 *322:24 0.000208574
7 *322:14 0.000387792
8 *322:10 0.000406619
9 *322:10 *401:29 1.24376e-05
10 *322:10 *402:6 9.87985e-06
11 *322:10 *404:8 3.54728e-05
12 *322:10 *705:67 6.85344e-06
13 *322:10 *739:32 2.04934e-05
14 *322:14 *1709:A 0.000144501
15 *322:14 *739:26 8.17328e-05
16 *322:24 *1786:B1 6.16531e-05
17 *322:24 *401:12 4.67488e-05
18 *322:24 *401:29 1.35425e-05
19 *322:24 *403:12 0.000138402
20 *322:24 *724:16 0.000215187
21 *322:24 *733:20 7.41959e-05
22 *322:24 *733:36 0.000120014
23 *322:24 *739:26 5.3304e-05
24 *322:45 *404:8 2.67179e-05
*RES
1 *1606:Y *322:10 41.2521 
2 *322:10 *322:14 17.5271 
3 *322:14 *322:24 35.3857 
4 *322:24 *1706:B 23 
5 *322:14 *1708:B 23 
6 *1606:Y *322:45 40.8793 
7 *322:45 *1712:B1 38 
*END

*D_NET *323 0.00515614
*CONN
*I *1924:A1 I *D sky130_fd_sc_hd__a21oi_2
*I *1607:Y O *D sky130_fd_sc_hd__inv_2
*CAP
1 *1924:A1 0.000408459
2 *1607:Y 0.000109817
3 *323:16 0.00151509
4 *323:10 0.00121644
5 *1924:A1 *527:23 8.16924e-05
6 *1924:A1 *528:20 7.19441e-05
7 *1924:A1 *636:34 4.15283e-06
8 *1924:A1 *688:87 0
9 *1924:A1 *688:95 6.29446e-05
10 *323:16 *2108:CLK 0.000202179
11 *323:16 *602:35 0.000229793
12 *323:16 *658:29 0.000231499
13 pcRegister[28] *323:10 0.000109739
14 *2108:D *323:16 6.17437e-06
15 *109:10 *323:16 0.000269173
16 *169:18 *1924:A1 0.000182473
17 *169:79 *1924:A1 0.000259609
18 *277:18 *323:10 0.000107508
19 *278:10 *1924:A1 8.74539e-05
*RES
1 *1607:Y *323:10 40.175 
2 *323:10 *323:16 48.7257 
3 *323:16 *1924:A1 47.3007 
*END

*D_NET *324 0.000869271
*CONN
*I *1887:D1 I *D sky130_fd_sc_hd__a2111oi_2
*I *1608:Y O *D sky130_fd_sc_hd__inv_2
*CAP
1 *1887:D1 0
2 *1608:Y 0.000232091
3 *324:10 0.000232091
4 *324:10 *506:10 0.000349823
5 *2012:RESET_B *324:10 5.5266e-05
*RES
1 *1608:Y *324:10 43.3443 
2 *324:10 *1887:D1 38 
*END

*D_NET *325 0.00198706
*CONN
*I *1887:C1 I *D sky130_fd_sc_hd__a2111oi_2
*I *1885:A1 I *D sky130_fd_sc_hd__a21o_2
*I *1609:Y O *D sky130_fd_sc_hd__inv_2
*CAP
1 *1887:C1 0.000134942
2 *1885:A1 0.000209197
3 *1609:Y 0.000309924
4 *325:10 0.000654064
5 *1885:A1 *1771:A 9.84794e-05
6 *1885:A1 *447:12 9.84794e-05
7 *1885:A1 *535:76 1.55097e-05
8 *1887:C1 *2242:A 0
9 *1887:C1 *446:22 0.00020357
10 *1887:C1 *501:20 3.13952e-05
11 *1887:C1 *506:10 3.50862e-06
12 *1887:C1 *675:24 5.48125e-05
13 *325:10 *2242:A 0
14 *325:10 *413:41 0
15 *325:10 *413:66 0
16 *325:10 *675:24 9.42865e-05
17 *325:10 *681:94 7.88926e-05
*RES
1 *1609:Y *325:10 43.5929 
2 *325:10 *1885:A1 41.0036 
3 *325:10 *1887:C1 41.6664 
*END

*D_NET *326 0.00102238
*CONN
*I *1725:A I *D sky130_fd_sc_hd__nor3_2
*I *1720:A1 I *D sky130_fd_sc_hd__a21boi_2
*I *1610:Y O *D sky130_fd_sc_hd__inv_2
*CAP
1 *1725:A 0
2 *1720:A1 0
3 *1610:Y 8.57617e-05
4 *326:19 0.000131326
5 *326:6 0.000217087
6 *326:6 *1610:A 5.5792e-05
7 *326:6 *1720:A2 0.00014384
8 *326:6 *2100:CLK 2.193e-05
9 *326:19 *1726:B 3.13857e-05
10 *326:19 *2100:CLK 2.19403e-05
11 *326:19 *413:31 6.45006e-05
12 *326:19 *449:31 0.000193024
13 *295:10 *326:19 5.5792e-05
*RES
1 *1610:Y *326:6 25.0507 
2 *326:6 *1720:A1 23 
3 *326:6 *326:19 33.7079 
4 *326:19 *1725:A 23 
*END

*D_NET *327 0.00193391
*CONN
*I *1767:A1 I *D sky130_fd_sc_hd__o21a_2
*I *1739:B I *D sky130_fd_sc_hd__nor2_2
*I *1611:Y O *D sky130_fd_sc_hd__inv_2
*CAP
1 *1767:A1 0
2 *1739:B 0.000162611
3 *1611:Y 0.000272569
4 *327:10 0.00043518
5 *1739:B *1938:A 2.50118e-05
6 *1739:B *2258:A 3.50862e-06
7 *1739:B *423:8 5.82853e-05
8 *1739:B *423:22 0.000141355
9 *1739:B *423:26 0.000163256
10 *327:10 *423:26 0.000368982
11 *13:10 *1739:B 9.84698e-05
12 *13:10 *327:10 0.000204678
*RES
1 *1611:Y *327:10 44.6493 
2 *327:10 *1739:B 42.6607 
3 *327:10 *1767:A1 38 
*END

*D_NET *328 0.00167445
*CONN
*I *1842:B1 I *D sky130_fd_sc_hd__a21oi_2
*I *1736:A3 I *D sky130_fd_sc_hd__o31a_2
*I *1612:Y O *D sky130_fd_sc_hd__inv_2
*CAP
1 *1842:B1 0.000154749
2 *1736:A3 0.000107135
3 *1612:Y 4.76372e-05
4 *328:8 0.000309521
5 *1736:A3 *694:67 0.000136738
6 *1842:B1 *692:90 0.000221306
7 *1842:B1 *707:21 5.3304e-05
8 *1842:B1 *725:12 0.00023462
9 *328:8 *692:90 0.000114083
10 *328:8 *694:144 3.72639e-05
11 *328:8 *725:12 3.70094e-05
12 *321:14 *1736:A3 0.000221084
*RES
1 *1612:Y *328:8 39.5536 
2 *328:8 *1736:A3 40.5271 
3 *328:8 *1842:B1 41.9357 
*END

*D_NET *329 0.00510953
*CONN
*I *1789:A1 I *D sky130_fd_sc_hd__o21bai_2
*I *1726:A I *D sky130_fd_sc_hd__and2_2
*I *1728:A2 I *D sky130_fd_sc_hd__a21oi_2
*I *1731:A2 I *D sky130_fd_sc_hd__a21oi_2
*I *1613:Y O *D sky130_fd_sc_hd__inv_2
*CAP
1 *1789:A1 0
2 *1726:A 0
3 *1728:A2 3.97715e-05
4 *1731:A2 4.88773e-05
5 *1613:Y 0.0002925
6 *329:44 0.000431609
7 *329:14 8.86488e-05
8 *329:12 0.0010282
9 *329:10 0.000889092
10 *1728:A2 *1731:A1 0.000140652
11 *1731:A2 *1731:A1 4.33419e-05
12 *1731:A2 *418:10 3.66052e-05
13 *329:10 *1759:A_N 0.000221992
14 *329:10 *454:20 3.884e-05
15 *329:12 *1732:B1 0.000109335
16 *329:12 *1785:B1 1.06805e-05
17 *329:12 *1786:B1 8.82524e-05
18 *329:12 *401:12 0.000503262
19 *329:12 *415:33 4.24694e-06
20 *329:12 *454:20 4.21594e-06
21 *329:12 *705:12 0
22 *329:12 *723:19 0.000295041
23 *329:12 *724:16 6.9423e-05
24 *329:12 *733:20 0
25 *329:12 *733:36 0.000204558
26 *329:12 *738:39 0.000216721
27 *329:12 *739:10 5.62433e-06
28 *329:44 *417:16 1.05658e-05
29 *329:44 *544:60 0.000287474
30 *190:10 *329:12 0
*RES
1 *1613:Y *329:10 42.4329 
2 *329:10 *329:12 14.935 
3 *329:12 *329:14 15 
4 *329:14 *1731:A2 24.3568 
5 *329:14 *1728:A2 24.595 
6 *329:12 *329:44 32.1499 
7 *329:44 *1726:A 23 
8 *329:10 *1789:A1 38 
*END

*D_NET *330 0.00280935
*CONN
*I *1783:A2 I *D sky130_fd_sc_hd__a22o_2
*I *1722:A2 I *D sky130_fd_sc_hd__o31a_2
*I *1614:Y O *D sky130_fd_sc_hd__inv_2
*CAP
1 *1783:A2 0
2 *1722:A2 0.000110418
3 *1614:Y 6.34717e-05
4 *330:25 0.000559621
5 *330:6 0.000733511
6 *1722:A2 *1621:A2 2.79543e-05
7 *1722:A2 *1722:A1 3.91386e-05
8 *1722:A2 *1722:B1 4.6448e-05
9 *1722:A2 *331:42 6.79156e-05
10 *330:6 *1722:B1 0.00014196
11 *330:25 *450:10 0.00048189
12 *330:25 *450:33 0
13 *330:25 *535:15 0
14 *330:25 *535:133 6.07272e-05
15 *330:25 *551:8 0.000138593
16 *330:25 *734:8 0.000326973
17 *179:10 *330:25 1.07299e-05
18 *186:8 *330:25 0
*RES
1 *1614:Y *330:6 24.5743 
2 *330:6 *1722:A2 25.4236 
3 *330:6 *330:25 43.6196 
4 *330:25 *1783:A2 23 
*END

*D_NET *331 0.00313944
*CONN
*I *1722:A3 I *D sky130_fd_sc_hd__o31a_2
*I *1721:A2 I *D sky130_fd_sc_hd__o31a_2
*I *1784:A I *D sky130_fd_sc_hd__nor2_2
*I *1615:Y O *D sky130_fd_sc_hd__inv_2
*CAP
1 *1722:A3 0
2 *1721:A2 0
3 *1784:A 0.000166834
4 *1615:Y 0.000367356
5 *331:42 0.000401439
6 *331:10 0.000312124
7 *331:6 0.000914085
8 *1784:A *2185:A 0
9 *1784:A *332:23 2.04774e-05
10 *1784:A *624:10 6.93553e-05
11 *331:6 *335:8 0.000275371
12 *331:6 *734:71 1.03836e-05
13 *331:10 *1616:A 0
14 *331:10 *332:23 1.4471e-05
15 *331:10 *624:10 6.07611e-06
16 *331:10 *727:40 0
17 *331:42 *1621:A2 1.66896e-05
18 *331:42 *1621:B1 0.000226295
19 *331:42 *1722:A1 0.000140259
20 *331:42 *535:15 4.08641e-05
21 *331:42 *734:8 8.94487e-05
22 *1722:A2 *331:42 6.79156e-05
*RES
1 *1615:Y *331:6 28.8621 
2 *331:6 *331:10 17.2579 
3 *331:10 *1784:A 41.2314 
4 *331:10 *1721:A2 38 
5 *331:6 *331:42 37.7264 
6 *331:42 *1722:A3 23 
*END

*D_NET *332 0.00331394
*CONN
*I *1783:B1 I *D sky130_fd_sc_hd__a22o_2
*I *1721:A3 I *D sky130_fd_sc_hd__o31a_2
*I *1616:Y O *D sky130_fd_sc_hd__inv_2
*CAP
1 *1783:B1 0
2 *1721:A3 0
3 *1616:Y 0.00037758
4 *332:23 0.000398773
5 *332:6 0.000776353
6 *332:6 *551:37 0.000740187
7 *332:23 *1626:A 0
8 *332:23 *1783:A1 0.000115138
9 *332:23 *2185:A 0
10 *332:23 *551:37 8.52481e-05
11 *332:23 *624:10 0.000138727
12 *332:23 *727:16 0.000248321
13 *332:23 *727:25 0.000166522
14 *332:23 *727:40 0.000232142
15 *1784:A *332:23 2.04774e-05
16 *331:10 *332:23 1.4471e-05
*RES
1 *1616:Y *332:6 31.2443 
2 *332:6 *1721:A3 23 
3 *332:6 *332:23 40.9371 
4 *332:23 *1783:B1 23 
*END

*D_NET *333 0.00173486
*CONN
*I *1629:A I *D sky130_fd_sc_hd__nand2_2
*I *1632:B2 I *D sky130_fd_sc_hd__a22o_2
*I *1775:B1 I *D sky130_fd_sc_hd__a21oi_2
*I *1617:Y O *D sky130_fd_sc_hd__inv_2
*CAP
1 *1629:A 0
2 *1632:B2 0
3 *1775:B1 0
4 *1617:Y 0.000182401
5 *333:39 0.000153103
6 *333:18 0.000366061
7 *333:6 0.00039536
8 *333:6 *1632:B1 9.82009e-05
9 *333:6 *779:14 9.64943e-05
10 *333:18 *1628:A 1.02799e-05
11 *333:18 *1933:A 0.000102389
12 *333:18 *448:10 5.79559e-05
13 *333:18 *551:24 6.12912e-05
14 *333:18 *551:33 1.2972e-05
15 *333:18 *681:69 1.3523e-05
16 *333:18 *779:10 7.14515e-05
17 *333:39 *1627:B 1.3523e-05
18 *333:39 *1628:A 7.51623e-05
19 *333:39 *779:14 2.46906e-05
*RES
1 *1617:Y *333:6 24.0979 
2 *333:6 *333:18 37.2914 
3 *333:18 *1775:B1 23 
4 *333:6 *1632:B2 23 
5 *1617:Y *333:39 40.8793 
6 *333:39 *1629:A 38 
*END

*D_NET *334 0.000759479
*CONN
*I *1798:A2 I *D sky130_fd_sc_hd__a21o_2
*I *1620:Y O *D sky130_fd_sc_hd__nand2_2
*CAP
1 *1798:A2 8.62625e-05
2 *1620:Y 8.62625e-05
3 *1798:A2 *1620:A 0.000377353
4 *1798:A2 *734:33 0.000146822
5 *13:14 *1798:A2 6.27789e-05
*RES
1 *1620:Y *1798:A2 49.9564 
*END

*D_NET *335 0.00431542
*CONN
*I *1631:B I *D sky130_fd_sc_hd__and3_2
*I *1624:A I *D sky130_fd_sc_hd__nand2_2
*I *1800:A I *D sky130_fd_sc_hd__and2_2
*I *1621:X O *D sky130_fd_sc_hd__a31o_2
*CAP
1 *1631:B 0.000321437
2 *1624:A 0.000217796
3 *1800:A 0
4 *1621:X 0.000351668
5 *335:23 0.000777678
6 *335:10 0.000391255
7 *335:8 0.000504478
8 *1624:A *1624:B 3.48643e-05
9 *1624:A *337:16 3.12477e-05
10 *1624:A *338:10 1.21972e-05
11 *1631:B *1631:A 0
12 *1631:B *337:42 8.4047e-05
13 *1631:B *338:10 0
14 *1631:B *342:42 2.68751e-05
15 *1631:B *684:10 0
16 *1631:B *684:24 0.000270398
17 *335:8 *1615:A 5.29672e-05
18 *335:8 *1623:A3 5.50049e-05
19 *335:8 *1628:C 9.67842e-05
20 *335:8 *734:71 0.00024628
21 *335:10 *1628:C 1.58805e-05
22 *335:10 *2159:A 0
23 *335:10 *344:10 0.000110106
24 *335:23 *2159:A 0
25 *335:23 *342:42 0.000303527
26 *335:23 *344:10 2.24048e-05
27 *165:10 *335:23 0
28 *168:8 *335:23 0.000113153
29 *331:6 *335:8 0.000275371
*RES
1 *1621:X *335:8 47.6736 
2 *335:8 *335:10 2.96214 
3 *335:10 *1800:A 38 
4 *335:10 *335:23 6.19357 
5 *335:23 *1624:A 41.5007 
6 *335:23 *1631:B 43.6136 
*END

*D_NET *336 0.000126903
*CONN
*I *1799:A2 I *D sky130_fd_sc_hd__a21o_2
*I *1622:Y O *D sky130_fd_sc_hd__nand2_2
*CAP
1 *1799:A2 6.74574e-06
2 *1622:Y 6.74574e-06
3 *1799:A2 *341:31 5.67058e-05
4 *1799:A2 *539:20 5.67058e-05
*RES
1 *1622:Y *1799:A2 46.6214 
*END

*D_NET *337 0.00392089
*CONN
*I *1631:C I *D sky130_fd_sc_hd__and3_2
*I *1801:A I *D sky130_fd_sc_hd__and2_2
*I *1624:B I *D sky130_fd_sc_hd__nand2_2
*I *1623:X O *D sky130_fd_sc_hd__a31o_2
*CAP
1 *1631:C 0
2 *1801:A 0
3 *1624:B 4.53335e-05
4 *1623:X 0.000327546
5 *337:42 0.000364539
6 *337:16 0.000246215
7 *337:12 0.000936841
8 *337:8 0.000698966
9 *1624:B *338:10 1.24376e-05
10 *337:8 *2159:A 0.000259447
11 *337:8 *341:27 0
12 *337:8 *711:20 0.000112693
13 *337:8 *734:52 0
14 *337:12 *2104:CLK 0.000218493
15 *337:42 *1631:A 5.3304e-05
16 *337:42 *469:10 5.50049e-05
17 *337:42 *586:10 1.83564e-05
18 *337:42 *656:10 1.83564e-05
19 *337:42 *684:10 0
20 *337:42 *685:6 0.000114032
21 *337:42 *685:10 1.46205e-05
22 *337:42 *685:26 0
23 *1624:A *1624:B 3.48643e-05
24 *1624:A *337:16 3.12477e-05
25 *1631:B *337:42 8.4047e-05
26 *230:10 *337:8 0.000274543
*RES
1 *1623:X *337:8 46.9486 
2 *337:8 *337:12 20.3857 
3 *337:12 *337:16 2.9 
4 *337:16 *1624:B 24.1186 
5 *337:16 *1801:A 23 
6 *337:12 *337:42 36.7321 
7 *337:42 *1631:C 23 
*END

*D_NET *338 0.001934
*CONN
*I *1630:A2 I *D sky130_fd_sc_hd__a22o_2
*I *1777:A2 I *D sky130_fd_sc_hd__a21o_2
*I *1624:Y O *D sky130_fd_sc_hd__nand2_2
*CAP
1 *1630:A2 3.32967e-06
2 *1777:A2 0.00010813
3 *1624:Y 0.000314028
4 *338:12 0.000111459
5 *338:10 0.000314028
6 *1630:A2 *1630:B1 1.55941e-05
7 *1777:A2 *1630:B1 4.94669e-05
8 *1777:A2 *1630:B2 5.56279e-05
9 *1777:A2 *1777:A1 3.85196e-05
10 *1777:A2 *341:27 3.79638e-05
11 *1777:A2 *342:21 0
12 *1777:A2 *342:42 0
13 *1777:A2 *778:36 0.000233359
14 *338:10 *1630:A1 6.16439e-05
15 *338:10 *1631:A 0.000432791
16 *338:10 *342:42 0.000114729
17 *338:10 *344:10 1.86973e-05
18 *1624:A *338:10 1.21972e-05
19 *1624:B *338:10 1.24376e-05
20 *1631:B *338:10 0
*RES
1 *1624:Y *338:10 45.105 
2 *338:10 *338:12 15 
3 *338:12 *1777:A2 26.9979 
4 *338:12 *1630:A2 23.1709 
*END

*D_NET *339 0.00138582
*CONN
*I *1760:A1 I *D sky130_fd_sc_hd__a31oi_2
*I *1625:Y O *D sky130_fd_sc_hd__nand2_2
*CAP
1 *1760:A1 0
2 *1625:Y 0.000197165
3 *339:10 0.000197165
4 *339:10 *1760:B1 0.000450701
5 *339:10 *445:10 9.79925e-05
6 *339:10 *449:48 9.79925e-05
7 *339:10 *555:80 0.000232269
8 *143:10 *339:10 0.000112535
*RES
1 *1625:Y *339:10 45.2293 
2 *339:10 *1760:A1 38 
*END

*D_NET *340 0.0054356
*CONN
*I *1628:C I *D sky130_fd_sc_hd__nand3_2
*I *1627:C I *D sky130_fd_sc_hd__and3_2
*I *1775:A2 I *D sky130_fd_sc_hd__a21oi_2
*I *1760:B1 I *D sky130_fd_sc_hd__a31oi_2
*I *1626:X O *D sky130_fd_sc_hd__and3_2
*CAP
1 *1628:C 0.000251384
2 *1627:C 0.000488993
3 *1775:A2 8.56681e-05
4 *1760:B1 0.000478886
5 *1626:X 0
6 *340:30 0.000977455
7 *340:19 0.000430442
8 *340:6 0.000586582
9 *1627:C *1632:B1 0.000363975
10 *1627:C *551:37 1.03955e-05
11 *1627:C *583:6 0.0002263
12 *1628:C *344:10 0
13 *1628:C *681:69 9.42969e-05
14 *1760:B1 *413:66 0
15 *1760:B1 *441:8 5.67058e-05
16 *1760:B1 *449:12 0
17 *1760:B1 *449:48 0
18 *1760:B1 *555:80 6.23235e-05
19 *1760:B1 *701:43 0.000143655
20 *1760:B1 *736:25 0.000113369
21 *1775:A2 *551:24 0.000234534
22 *1775:A2 *555:80 5.5792e-05
23 *340:30 *551:24 0
24 *340:30 *551:33 0
25 *340:30 *681:69 0.000107338
26 *318:8 *1628:C 5.09988e-05
27 *318:8 *340:30 5.31444e-05
28 *335:8 *1628:C 9.67842e-05
29 *335:10 *1628:C 1.58805e-05
30 *339:10 *1760:B1 0.000450701
*RES
1 *1626:X *340:6 38 
2 *340:6 *1760:B1 49.2271 
3 *340:6 *340:19 1.90571 
4 *340:19 *1775:A2 40.5271 
5 *340:19 *340:30 5.075 
6 *340:30 *1627:C 45.2914 
7 *340:30 *1628:C 43.5929 
*END

*D_NET *341 0.00678292
*CONN
*I *1799:B1 I *D sky130_fd_sc_hd__a21o_2
*I *1798:B1 I *D sky130_fd_sc_hd__a21o_2
*I *1777:B1 I *D sky130_fd_sc_hd__a21o_2
*I *1627:X O *D sky130_fd_sc_hd__and3_2
*CAP
1 *1799:B1 0
2 *1798:B1 0
3 *1777:B1 3.76438e-05
4 *1627:X 0.000172981
5 *341:45 0.000540824
6 *341:31 0.000736172
7 *341:27 0.00142207
8 *341:12 0.00132534
9 *341:8 0.000233953
10 *1777:B1 *1777:A1 5.47983e-06
11 *341:8 *345:12 0.000294699
12 *341:27 *1630:B1 0.000183733
13 *341:27 *1630:B2 2.86326e-05
14 *341:27 *342:21 0.000167786
15 *341:27 *684:8 3.59762e-05
16 *341:27 *711:20 7.75329e-06
17 *341:27 *727:48 4.67488e-05
18 *341:27 *734:52 8.75792e-05
19 *341:27 *777:8 0.000218962
20 *341:27 *778:25 1.1669e-05
21 *341:27 *778:36 6.82228e-06
22 *341:31 *539:20 0.000177271
23 *341:31 *539:63 3.17634e-05
24 *341:31 *711:20 0.000393287
25 *341:45 *535:13 3.3577e-05
26 *341:45 *535:15 4.54033e-05
27 *341:45 *535:209 9.17704e-05
28 *341:45 *711:10 6.07611e-06
29 *341:45 *711:20 2.96154e-05
30 *341:45 *727:40 1.19692e-05
31 *341:45 *727:59 0
32 *341:45 *734:44 0.0002263
33 *1777:A2 *341:27 3.79638e-05
34 *1799:A2 *341:31 5.67058e-05
35 *2123:A *341:45 4.42168e-05
36 *13:14 *341:45 1.35628e-05
37 *147:10 *341:12 3.82058e-06
38 *147:10 *341:27 2.92911e-06
39 *165:10 *341:27 1.18615e-05
40 *337:8 *341:27 0
*RES
1 *1627:X *341:8 42.0186 
2 *341:8 *341:12 15.6214 
3 *341:12 *1777:B1 23.8493 
4 *341:12 *341:27 48.5807 
5 *341:27 *341:31 5.88286 
6 *341:31 *341:45 41.02 
7 *341:45 *1798:B1 23 
8 *341:31 *1799:B1 23 
*END

*D_NET *342 0.00225317
*CONN
*I *1801:B I *D sky130_fd_sc_hd__and2_2
*I *1800:B I *D sky130_fd_sc_hd__and2_2
*I *1630:B1 I *D sky130_fd_sc_hd__a22o_2
*I *1628:Y O *D sky130_fd_sc_hd__nand3_2
*CAP
1 *1801:B 0
2 *1800:B 0
3 *1630:B1 5.41245e-05
4 *1628:Y 0.000107213
5 *342:42 0.000321627
6 *342:21 0.000410421
7 *342:10 0.000142918
8 *342:8 0.000107213
9 *1630:B1 *344:10 3.7122e-06
10 *342:8 *1628:B 1.37349e-05
11 *342:8 *2031:CLK 1.01436e-05
12 *342:8 *343:16 0
13 *342:8 *344:10 0.000194299
14 *342:21 *344:10 1.59094e-05
15 *342:42 *344:10 1.01436e-05
16 *1630:A2 *1630:B1 1.55941e-05
17 *1631:B *342:42 2.68751e-05
18 *1777:A2 *1630:B1 4.94669e-05
19 *1777:A2 *342:21 0
20 *1777:A2 *342:42 0
21 *335:23 *342:42 0.000303527
22 *338:10 *342:42 0.000114729
23 *341:27 *1630:B1 0.000183733
24 *341:27 *342:21 0.000167786
*RES
1 *1628:Y *342:8 40.61 
2 *342:8 *342:10 15 
3 *342:10 *1630:B1 25.0507 
4 *342:10 *342:21 2.54786 
5 *342:21 *1800:B 23 
6 *342:21 *342:42 37.9336 
7 *342:42 *1801:B 23 
*END

*D_NET *343 0.000645035
*CONN
*I *1630:B2 I *D sky130_fd_sc_hd__a22o_2
*I *1629:Y O *D sky130_fd_sc_hd__nand2_2
*CAP
1 *1630:B2 1.94622e-05
2 *1629:Y 0.000249618
3 *343:16 0.00026908
4 *343:16 *1630:A1 4.2812e-06
5 *343:16 *2031:CLK 1.83327e-05
6 *1777:A2 *1630:B2 5.56279e-05
7 *341:27 *1630:B2 2.86326e-05
8 *342:8 *343:16 0
*RES
1 *1629:Y *343:16 41.7907 
2 *343:16 *1630:B2 38.6214 
*END

*D_NET *344 0.00110589
*CONN
*I *1632:A2 I *D sky130_fd_sc_hd__a22o_2
*I *1630:X O *D sky130_fd_sc_hd__a22o_2
*CAP
1 *1632:A2 4.12718e-06
2 *1630:X 0.000275673
3 *344:10 0.0002798
4 *1632:A2 *551:37 1.46586e-05
5 *1632:A2 *583:6 1.55941e-05
6 *344:10 *2031:CLK 9.27917e-05
7 *344:10 *551:33 1.83564e-05
8 *1628:C *344:10 0
9 *1630:B1 *344:10 3.7122e-06
10 *318:8 *344:10 2.96154e-05
11 *335:10 *344:10 0.000110106
12 *335:23 *344:10 2.24048e-05
13 *338:10 *344:10 1.86973e-05
14 *342:8 *344:10 0.000194299
15 *342:21 *344:10 1.59094e-05
16 *342:42 *344:10 1.01436e-05
*RES
1 *1630:X *344:10 45.105 
2 *344:10 *1632:A2 38.1709 
*END

*D_NET *345 0.00422452
*CONN
*I *1632:B1 I *D sky130_fd_sc_hd__a22o_2
*I *1776:A I *D sky130_fd_sc_hd__or2_2
*I *1631:X O *D sky130_fd_sc_hd__and3_2
*CAP
1 *1632:B1 0.000174814
2 *1776:A 0.000137301
3 *1631:X 7.96821e-05
4 *345:12 0.00103136
5 *345:8 0.000798926
6 *1632:B1 *1617:A 1.12349e-05
7 *1632:B1 *1627:B 3.42345e-05
8 *1632:B1 *1776:B 5.3304e-05
9 *1632:B1 *551:37 6.17437e-06
10 *1632:B1 *555:29 7.12821e-05
11 *1632:B1 *779:14 4.65315e-05
12 *1776:A *1776:B 0.000140927
13 *345:8 *685:10 0.000188934
14 *345:12 *1627:A 5.44889e-06
15 *345:12 *1629:B 0.00024851
16 *345:12 *448:10 3.43144e-05
17 *345:12 *555:29 5.86204e-05
18 *345:12 *684:24 0.000194523
19 *345:12 *778:10 9.80563e-05
20 *1627:C *1632:B1 0.000363975
21 *170:8 *345:12 5.34638e-05
22 *333:6 *1632:B1 9.82009e-05
23 *341:8 *345:12 0.000294699
*RES
1 *1631:X *345:8 40.0507 
2 *345:8 *345:12 29.935 
3 *345:12 *1776:A 25.5271 
4 *345:12 *1632:B1 29.1936 
*END

*D_NET *346 0.00608615
*CONN
*I *1778:A2 I *D sky130_fd_sc_hd__a22o_2
*I *1640:A1 I *D sky130_fd_sc_hd__mux2_1
*I *1634:A_N I *D sky130_fd_sc_hd__nand2b_2
*I *1794:C1 I *D sky130_fd_sc_hd__a211o_2
*I *1633:X O *D sky130_fd_sc_hd__and3_2
*CAP
1 *1778:A2 0
2 *1640:A1 0.000215553
3 *1634:A_N 0
4 *1794:C1 0
5 *1633:X 0.000307669
6 *346:47 0.000614909
7 *346:23 0.000215553
8 *346:21 0.000698233
9 *346:14 0.000753716
10 *346:8 0.00114471
11 *1640:A1 *1634:B 0.0002263
12 *1640:A1 *775:14 4.34745e-05
13 *346:8 *1736:B1 5.41288e-05
14 *346:14 *1743:B1 9.91895e-05
15 *346:14 *2095:CLK 4.94738e-05
16 *346:14 *2152:A 0.000196389
17 *346:14 *348:20 7.27182e-05
18 *346:14 *351:25 0
19 *346:14 *535:176 0
20 *346:14 *537:8 5.50049e-05
21 *346:14 *538:10 5.34813e-05
22 *346:14 *538:12 6.49013e-05
23 *346:14 *538:65 8.93738e-05
24 *346:21 *538:65 3.35625e-05
25 *346:47 *1778:A1 0.000159954
26 *346:47 *351:25 0.000454762
27 *346:47 *538:65 7.03359e-05
28 *346:47 *775:10 1.46594e-05
29 *1643:B1 *1640:A1 6.53382e-05
30 *132:10 *1640:A1 7.15126e-05
31 *132:10 *346:21 2.12347e-06
32 *132:10 *346:47 6.8886e-05
33 *316:10 *346:14 3.70094e-05
34 *316:10 *346:21 0.000121474
35 *321:14 *346:8 3.17516e-05
*RES
1 *1633:X *346:8 41.9564 
2 *346:8 *346:14 32.3379 
3 *346:14 *1794:C1 23 
4 *346:8 *346:21 1.90571 
5 *346:21 *346:23 15 
6 *346:23 *1634:A_N 23 
7 *346:23 *1640:A1 28.2821 
8 *346:21 *346:47 28.485 
9 *346:47 *1778:A2 23 
*END

*D_NET *347 0.00210055
*CONN
*I *1779:B1_N I *D sky130_fd_sc_hd__a21bo_2
*I *1644:A2 I *D sky130_fd_sc_hd__a31o_2
*I *1642:A2 I *D sky130_fd_sc_hd__a31oi_2
*I *1634:Y O *D sky130_fd_sc_hd__nand2b_2
*CAP
1 *1779:B1_N 0.000205313
2 *1644:A2 0
3 *1642:A2 9.27504e-05
4 *1634:Y 0
5 *347:10 0.000244717
6 *347:6 0.00035728
7 *1642:A2 *1644:A1 4.95081e-05
8 *1642:A2 *1644:A3 0.000242019
9 *1642:A2 *1644:B1 0.000141954
10 *1642:A2 *350:14 5.50049e-05
11 *1779:B1_N *1779:A2 0
12 *1779:B1_N *2016:CLK 9.72284e-05
13 *1779:B1_N *351:25 0
14 *1779:B1_N *775:10 0
15 *347:10 *351:25 0
16 *347:10 *775:10 0
17 *132:10 *1779:B1_N 0.000342403
18 *132:10 *347:10 0.000138727
19 *145:10 *1779:B1_N 2.93845e-05
20 *172:8 *1779:B1_N 8.16253e-05
21 *316:10 *347:10 2.26385e-05
*RES
1 *1634:Y *347:6 38 
2 *347:6 *347:10 17.9621 
3 *347:10 *1642:A2 26.8529 
4 *347:10 *1644:A2 23 
5 *347:6 *1779:B1_N 43.8259 
*END

*D_NET *348 0.00433679
*CONN
*I *1743:A1 I *D sky130_fd_sc_hd__a31o_2
*I *1635:Y O *D sky130_fd_sc_hd__nand2_2
*CAP
1 *1743:A1 0
2 *1635:Y 0.000512357
3 *348:20 0.000963963
4 *348:12 0.00147632
5 *348:12 *421:42 1.34354e-05
6 *348:12 *694:27 0
7 *348:12 *701:57 0
8 *348:12 *719:10 0.000103949
9 *348:12 *719:14 0.000243596
10 *348:12 *719:56 0
11 *348:12 *720:24 0.0001529
12 *348:20 *1743:B1 0.000115997
13 *348:20 *1987:A 0.00014196
14 *348:20 *2125:A 5.41385e-05
15 *348:20 *537:8 5.50049e-05
16 *348:20 *719:66 0.000215057
17 *138:10 *348:12 0.000177259
18 *225:8 *348:12 3.81391e-05
19 *346:14 *348:20 7.27182e-05
*RES
1 *1635:Y *348:12 49.1443 
2 *348:12 *348:20 30.5564 
3 *348:20 *1743:A1 23 
*END

*D_NET *349 0.00369214
*CONN
*I *1637:B I *D sky130_fd_sc_hd__and2_2
*I *1638:B I *D sky130_fd_sc_hd__nand2_2
*I *1743:B1 I *D sky130_fd_sc_hd__a31o_2
*I *1636:X O *D sky130_fd_sc_hd__and3_2
*CAP
1 *1637:B 0.000119888
2 *1638:B 0
3 *1743:B1 0.000471255
4 *1636:X 0.000259768
5 *349:19 0.000372787
6 *349:6 0.000983922
7 *1637:B *1637:A 0.000212414
8 *1637:B *351:10 1.29944e-05
9 *1637:B *556:106 1.13812e-05
10 *1743:B1 *1796:A 0
11 *1743:B1 *2125:A 5.12254e-05
12 *1743:B1 *719:66 5.67058e-05
13 *349:6 *719:66 0.000516489
14 *349:19 *2152:A 0
15 *349:19 *556:88 0.000111852
16 *349:19 *556:106 0.000264153
17 *349:19 *572:10 3.21223e-05
18 *346:14 *1743:B1 9.91895e-05
19 *348:20 *1743:B1 0.000115997
*RES
1 *1636:X *349:6 28.8621 
2 *349:6 *1743:B1 32.0936 
3 *349:6 *349:19 20.075 
4 *349:19 *1638:B 38 
5 *349:19 *1637:B 41.3143 
*END

*D_NET *350 0.00331545
*CONN
*I *1779:A2 I *D sky130_fd_sc_hd__a21bo_2
*I *1642:A3 I *D sky130_fd_sc_hd__a31oi_2
*I *1644:A3 I *D sky130_fd_sc_hd__a31o_2
*I *1637:X O *D sky130_fd_sc_hd__and2_2
*CAP
1 *1779:A2 0.000295173
2 *1642:A3 0
3 *1644:A3 0.000132232
4 *1637:X 0.000169384
5 *350:14 0.000190193
6 *350:10 0.000522519
7 *1779:A2 *1639:A 3.70187e-05
8 *1779:A2 *351:25 0.000409994
9 *1779:A2 *701:74 0
10 *1779:A2 *776:21 0.000360725
11 *1779:A2 *776:23 0.000129504
12 *1779:A2 *776:25 5.01986e-05
13 *350:10 *1639:A 0.000221642
14 *350:10 *2083:CLK 5.58003e-05
15 *350:10 *351:10 0.000141038
16 *350:10 *351:25 0.000221642
17 *350:10 *694:53 6.10802e-05
18 *350:14 *1644:B1 2.02872e-05
19 *1642:A2 *1644:A3 0.000242019
20 *1642:A2 *350:14 5.50049e-05
21 *1779:B1_N *1779:A2 0
22 *172:8 *1779:A2 0
*RES
1 *1637:X *350:10 43.3443 
2 *350:10 *350:14 16.0979 
3 *350:14 *1644:A3 26.5007 
4 *350:14 *1642:A3 23 
5 *350:10 *1779:A2 46.5964 
*END

*D_NET *351 0.00346401
*CONN
*I *1778:B1 I *D sky130_fd_sc_hd__a22o_2
*I *1639:B I *D sky130_fd_sc_hd__nand2_2
*I *1638:Y O *D sky130_fd_sc_hd__nand2_2
*CAP
1 *1778:B1 0
2 *1639:B 0
3 *1638:Y 0.000230384
4 *351:25 0.000616848
5 *351:10 0.000847232
6 *351:10 *1637:A 0.000138747
7 *351:10 *1638:A 1.84917e-05
8 *351:10 *694:53 5.6882e-05
9 *351:25 *1778:A1 3.87455e-05
10 *351:25 *775:10 0.00027625
11 *1637:B *351:10 1.29944e-05
12 *1779:A2 *351:25 0.000409994
13 *1779:B1_N *351:25 0
14 *316:10 *351:25 0
15 *346:14 *351:25 0
16 *346:47 *351:25 0.000454762
17 *347:10 *351:25 0
18 *350:10 *351:10 0.000141038
19 *350:10 *351:25 0.000221642
*RES
1 *1638:Y *351:10 43.3443 
2 *351:10 *1639:B 38 
3 *351:10 *351:25 30.4321 
4 *351:25 *1778:B1 23 
*END

*D_NET *352 0.00148919
*CONN
*I *1641:A1 I *D sky130_fd_sc_hd__a21oi_2
*I *1643:A1 I *D sky130_fd_sc_hd__a21oi_2
*I *1639:Y O *D sky130_fd_sc_hd__nand2_2
*CAP
1 *1641:A1 0
2 *1643:A1 0
3 *1639:Y 0.000173158
4 *352:14 0.000260267
5 *352:8 0.000433425
6 *352:8 *353:16 5.3304e-05
7 *352:8 *354:10 0.000137525
8 *352:14 *353:16 0.000431514
9 *352:14 *575:8 0
10 *352:14 *691:49 0
*RES
1 *1639:Y *352:8 26.5007 
2 *352:8 *352:14 35.7793 
3 *352:14 *1643:A1 23 
4 *352:8 *1641:A1 23 
*END

*D_NET *353 0.00184044
*CONN
*I *1643:A2 I *D sky130_fd_sc_hd__a21oi_2
*I *1641:A2 I *D sky130_fd_sc_hd__a21oi_2
*I *1640:X O *D sky130_fd_sc_hd__mux2_1
*CAP
1 *1643:A2 9.499e-05
2 *1641:A2 0
3 *1640:X 0.000158165
4 *353:16 0.000232215
5 *353:8 0.00048537
6 *353:16 *354:10 2.95125e-05
7 *353:16 *355:8 5.56306e-05
8 *353:16 *576:8 0.000163023
9 *353:16 *701:74 0
10 *1643:B1 *353:8 0.000136717
11 *352:8 *353:16 5.3304e-05
12 *352:14 *353:16 0.000431514
*RES
1 *1640:X *353:8 26.0243 
2 *353:8 *353:16 36.7529 
3 *353:16 *1641:A2 23 
4 *353:8 *1643:A2 24.5743 
*END

*D_NET *354 0.000849051
*CONN
*I *1642:B1 I *D sky130_fd_sc_hd__a31oi_2
*I *1641:Y O *D sky130_fd_sc_hd__a21oi_2
*CAP
1 *1642:B1 0
2 *1641:Y 0.000240472
3 *354:10 0.000240472
4 *354:10 *576:8 0.000114004
5 *354:10 *701:74 8.7065e-05
6 *352:8 *354:10 0.000137525
7 *353:16 *354:10 2.95125e-05
*RES
1 *1641:Y *354:10 43.2614 
2 *354:10 *1642:B1 38 
*END

*D_NET *355 0.00113669
*CONN
*I *1644:B1 I *D sky130_fd_sc_hd__a31o_2
*I *1643:Y O *D sky130_fd_sc_hd__a21oi_2
*CAP
1 *1644:B1 0.000214077
2 *1643:Y 5.64327e-05
3 *355:8 0.00027051
4 *1644:B1 *1644:A1 0.000223687
5 *355:8 *701:74 5.56306e-05
6 *1642:A2 *1644:B1 0.000141954
7 *317:6 *1644:B1 9.84851e-05
8 *350:14 *1644:B1 2.02872e-05
9 *353:16 *355:8 5.56306e-05
*RES
1 *1643:Y *355:8 39.5536 
2 *355:8 *1644:B1 42.9093 
*END

*D_NET *356 0.00175858
*CONN
*I *1676:C I *D sky130_fd_sc_hd__or4_2
*I *1645:Y O *D sky130_fd_sc_hd__nand2_2
*CAP
1 *1676:C 0
2 *1645:Y 0.000382989
3 *356:10 0.000382989
4 *356:10 *1645:A 5.50049e-05
5 *356:10 *1677:C 2.96154e-05
6 *356:10 *380:10 3.70187e-05
7 *356:10 *385:29 0
8 *356:10 *476:10 0
9 *356:10 *542:22 0
10 *356:10 *756:18 3.8931e-05
11 *356:10 *763:22 0.000156153
12 *356:10 *764:37 6.12496e-06
13 *356:10 *766:28 6.22475e-05
14 *356:10 *769:18 0.000108681
15 *356:10 *770:56 0.000443824
16 *356:10 *773:14 5.50049e-05
*RES
1 *1645:Y *356:10 47.9221 
2 *356:10 *1676:C 38 
*END

*D_NET *357 0.000520598
*CONN
*I *1648:B I *D sky130_fd_sc_hd__and3_2
*I *1646:X O *D sky130_fd_sc_hd__and4_2
*CAP
1 *1648:B 0
2 *1646:X 0.000191851
3 *357:8 0.000191851
4 *357:8 *383:25 0
5 *357:8 *475:8 4.83778e-05
6 *357:8 *476:10 0
7 *357:8 *766:28 0
8 *357:8 *767:25 0
9 *357:8 *773:8 8.85189e-05
*RES
1 *1646:X *357:8 42.0186 
2 *357:8 *1648:B 38 
*END

*D_NET *358 0.00141407
*CONN
*I *1648:C I *D sky130_fd_sc_hd__and3_2
*I *1647:X O *D sky130_fd_sc_hd__and3_2
*CAP
1 *1648:C 0
2 *1647:X 0.000339138
3 *358:10 0.000339138
4 *358:10 *1677:A 0.00010018
5 *358:10 *1677:C 0.000181919
6 *358:10 *1677:D 4.93944e-05
7 *358:10 *359:6 0.000106841
8 *358:10 *756:18 2.93845e-05
9 *358:10 *767:42 0.00021477
10 *358:10 *769:18 5.3304e-05
*RES
1 *1647:X *358:10 31.41 
2 *358:10 *1648:C 23 
*END

*D_NET *359 0.00487509
*CONN
*I *1661:B I *D sky130_fd_sc_hd__and3_2
*I *1657:C I *D sky130_fd_sc_hd__nand4_2
*I *1682:A1 I *D sky130_fd_sc_hd__a21oi_2
*I *1648:X O *D sky130_fd_sc_hd__and3_2
*CAP
1 *1661:B 0
2 *1657:C 1.73539e-05
3 *1682:A1 0.000221198
4 *1648:X 0.000522586
5 *359:38 0.000594467
6 *359:12 0.000506655
7 *359:6 0.00138516
8 *1657:C *674:36 0
9 *1682:A1 *1682:B1 2.31687e-05
10 *1682:A1 *674:36 0.000306216
11 *359:6 *1657:A 2.18409e-05
12 *359:6 *1677:A 5.41288e-05
13 *359:6 *1677:C 0.000180224
14 *359:6 *368:39 2.13733e-05
15 *359:6 *767:42 7.44354e-05
16 *359:12 *1657:A 5.69373e-05
17 *359:12 *1682:B1 5.25436e-05
18 *359:12 *368:6 3.85196e-05
19 *359:12 *368:18 6.51772e-05
20 *359:12 *368:39 1.96141e-05
21 *359:38 *1684:B 0.000100061
22 *359:38 *1684:C 1.64699e-05
23 *359:38 *1837:A 0.000222123
24 *359:38 *385:29 0
25 *359:38 *387:10 0.000128096
26 *359:38 *696:80 3.22879e-05
27 *359:38 *763:18 0.00010762
28 *358:10 *359:6 0.000106841
*RES
1 *1648:X *359:6 32.1971 
2 *359:6 *359:12 5.77929 
3 *359:12 *1682:A1 27.4536 
4 *359:12 *1657:C 23.4971 
5 *359:6 *359:38 41.9936 
6 *359:38 *1661:B 23 
*END

*D_NET *360 0.00376364
*CONN
*I *1650:B I *D sky130_fd_sc_hd__and2_2
*I *1805:B I *D sky130_fd_sc_hd__xor2_2
*I *1804:A I *D sky130_fd_sc_hd__nor2_2
*I *1649:X O *D sky130_fd_sc_hd__and3_2
*CAP
1 *1650:B 0
2 *1805:B 0.000107687
3 *1804:A 9.76904e-05
4 *1649:X 0
5 *360:39 0.000293407
6 *360:21 0.00106332
7 *360:6 0.000759912
8 *1804:A *687:36 0.000138872
9 *1805:B *1805:A 0.000100318
10 *360:21 *1651:C 0
11 *360:21 *2204:A 9.17484e-05
12 *360:21 *652:8 0.000346119
13 *360:21 *687:36 0.000189609
14 *360:21 *687:47 5.20172e-05
15 *360:21 *749:21 0
16 *360:39 *1650:A 0.000329954
17 *360:39 *2121:D 0.000130119
18 *360:39 *527:48 0
19 *360:39 *532:10 5.56356e-05
20 *360:39 *549:68 0
21 *360:39 *651:18 7.22981e-06
22 *2121:SET_B *360:39 0
*RES
1 *1649:X *360:6 38 
2 *360:6 *1804:A 39.9057 
3 *360:6 *360:21 28.485 
4 *360:21 *1805:B 1.99893 
5 *360:21 *360:39 36.1936 
6 *360:39 *1650:B 23 
*END

*D_NET *361 0.00267011
*CONN
*I *1808:C I *D sky130_fd_sc_hd__and3_2
*I *1807:A2 I *D sky130_fd_sc_hd__a21oi_2
*I *1650:X O *D sky130_fd_sc_hd__and2_2
*CAP
1 *1808:C 6.6095e-05
2 *1807:A2 0
3 *1650:X 0.000659441
4 *361:12 0.000298013
5 *361:8 0.000891358
6 *1808:C *1808:B 0.000141052
7 *1808:C *459:43 3.28357e-06
8 *1808:C *750:23 1.32314e-05
9 *1808:C *751:49 4.21921e-05
10 *1808:C *751:57 5.58003e-05
11 *361:8 *2010:A 0.000311612
12 *361:8 *532:10 1.27918e-05
13 *361:12 *751:8 0.000144805
14 *361:12 *751:14 1.51481e-05
15 *248:6 *361:8 1.52903e-05
*RES
1 *1650:X *361:8 47.1971 
2 *361:8 *361:12 19.7229 
3 *361:12 *1807:A2 23 
4 *361:12 *1808:C 25.0714 
*END

*D_NET *362 0.00481405
*CONN
*I *1659:B I *D sky130_fd_sc_hd__or4_2
*I *1656:A I *D sky130_fd_sc_hd__nor4_4
*I *1806:B I *D sky130_fd_sc_hd__xnor2_2
*I *1651:Y O *D sky130_fd_sc_hd__nand4_2
*CAP
1 *1659:B 0.000449355
2 *1656:A 0.000311473
3 *1806:B 0.000563331
4 *1651:Y 0.000303916
5 *362:26 0.00132416
6 *362:8 0.000303916
7 *1656:A *363:14 3.83778e-05
8 *1656:A *364:8 0
9 *1656:A *365:30 0
10 *1656:A *752:26 0.000164282
11 *1659:B *1834:C 2.24608e-05
12 *1659:B *363:14 7.72433e-05
13 *1659:B *365:30 0.000221997
14 *1659:B *650:10 0.000138718
15 *1659:B *750:31 0.000265981
16 *1659:B *752:26 7.39034e-05
17 *362:8 *1651:C 0.000137413
18 *362:8 *747:25 0
19 *362:26 *1806:A 3.26122e-05
20 *362:26 *1834:A 8.74421e-05
21 *362:26 *751:16 0.000297465
*RES
1 *1651:Y *362:8 44.1314 
2 *362:8 *1806:B 38 
3 *1806:B *362:26 46.1407 
4 *362:26 *1656:A 43.3443 
5 *362:26 *1659:B 46.2029 
*END

*D_NET *363 0.00208313
*CONN
*I *1653:B I *D sky130_fd_sc_hd__or4b_2
*I *1659:C I *D sky130_fd_sc_hd__or4_2
*I *1652:Y O *D sky130_fd_sc_hd__nand2b_2
*CAP
1 *1653:B 0
2 *1659:C 0
3 *1652:Y 0.00019705
4 *363:14 0.000323579
5 *363:6 0.000520629
6 *363:6 *1653:A 7.53384e-06
7 *363:6 *752:20 2.07355e-05
8 *363:6 *752:26 1.59094e-05
9 *363:14 *1836:D_N 0.000223698
10 *363:14 *365:30 0.000168053
11 *363:14 *750:31 0.000218013
12 *363:14 *751:14 0.000272312
13 *1656:A *363:14 3.83778e-05
14 *1659:B *363:14 7.72433e-05
*RES
1 *1652:Y *363:6 25.5271 
2 *363:6 *363:14 38.0786 
3 *363:14 *1659:C 23 
4 *363:6 *1653:B 23 
*END

*D_NET *364 0.000294708
*CONN
*I *1656:B I *D sky130_fd_sc_hd__nor4_4
*I *1653:X O *D sky130_fd_sc_hd__or4b_2
*CAP
1 *1656:B 0
2 *1653:X 7.52992e-05
3 *364:8 7.52992e-05
4 *364:8 *365:30 0.00014411
5 *1656:A *364:8 0
*RES
1 *1653:X *364:8 39.9057 
2 *364:8 *1656:B 38 
*END

*D_NET *365 0.00519448
*CONN
*I *1658:A I *D sky130_fd_sc_hd__or3b_2
*I *1656:C I *D sky130_fd_sc_hd__nor4_4
*I *1836:B I *D sky130_fd_sc_hd__or4b_2
*I *1654:X O *D sky130_fd_sc_hd__or3b_2
*CAP
1 *1658:A 0.000125517
2 *1656:C 0
3 *1836:B 0
4 *1654:X 0.000274913
5 *365:30 0.000478297
6 *365:20 0.000897367
7 *365:12 0.000544587
8 *365:10 0.000274913
9 *1658:A *1658:B 0.000185434
10 *1658:A *1658:C_N 5.70419e-05
11 *1658:A *1816:B 4.95081e-05
12 *1658:A *1816:C 9.5877e-05
13 *365:10 *1658:B 3.70094e-05
14 *365:10 *367:20 0
15 *365:10 *463:12 0
16 *365:10 *464:10 0
17 *365:10 *465:8 0
18 *365:10 *539:48 5.50049e-05
19 *365:10 *674:8 0
20 *365:10 *755:19 0.000138718
21 *365:20 *1816:A 0.000258097
22 *365:20 *1816:C 0.000270682
23 *365:20 *367:10 9.67842e-05
24 *365:30 *676:10 3.92407e-05
25 *365:30 *676:27 0.000623823
26 *365:30 *751:14 0.000138911
27 *365:30 *772:12 1.85916e-05
28 *1656:A *365:30 0
29 *1659:B *365:30 0.000221997
30 *363:14 *365:30 0.000168053
31 *364:8 *365:30 0.00014411
*RES
1 *1654:X *365:10 42.9921 
2 *365:10 *365:12 15 
3 *365:12 *365:20 9.86 
4 *365:20 *365:30 42.4493 
5 *365:30 *1836:B 23 
6 *365:20 *1656:C 23 
7 *365:12 *1658:A 26.9771 
*END

*D_NET *366 0.00337954
*CONN
*I *1659:D I *D sky130_fd_sc_hd__or4_2
*I *1835:B1 I *D sky130_fd_sc_hd__a311o_2
*I *1656:D I *D sky130_fd_sc_hd__nor4_4
*I *1655:X O *D sky130_fd_sc_hd__or4_2
*CAP
1 *1659:D 0
2 *1835:B1 0.000131291
3 *1656:D 0
4 *1655:X 0.000545934
5 *366:38 0.000105143
6 *366:23 0.00063829
7 *366:10 0.00094779
8 *1835:B1 *1835:A1 3.91386e-05
9 *1835:B1 *472:8 5.71321e-05
10 *1835:B1 *650:10 2.43944e-05
11 *1835:B1 *751:14 1.24376e-05
12 *366:10 *1825:B 0
13 *366:10 *367:10 9.98891e-05
14 *366:10 *463:8 0
15 *366:10 *463:12 0
16 *366:10 *465:8 0.000127269
17 *366:10 *676:10 0
18 *366:10 *687:12 1.05658e-05
19 *366:10 *744:21 6.17437e-06
20 *366:10 *744:38 0
21 *366:23 *463:8 0
22 *366:23 *650:10 6.88885e-05
23 *366:23 *676:10 0
24 *366:23 *676:27 0
25 *366:23 *752:16 3.3746e-05
26 *366:23 *753:32 0.000167452
27 *366:38 *676:27 0.000194318
28 *366:38 *753:32 0
29 *164:8 *366:10 0.000169683
*RES
1 *1655:X *366:10 49.3307 
2 *366:10 *1656:D 38 
3 *366:10 *366:23 22.4779 
4 *366:23 *1835:B1 25.5479 
5 *366:23 *366:38 32.61 
6 *366:38 *1659:D 23 
*END

*D_NET *367 0.00376402
*CONN
*I *2266:A I *D sky130_fd_sc_hd__clkbuf_2
*I *2393:A I *D sky130_fd_sc_hd__clkbuf_2
*I *1818:A I *D sky130_fd_sc_hd__nor2_2
*I *1656:Y O *D sky130_fd_sc_hd__nor4_4
*CAP
1 *2266:A 0
2 *2393:A 0.000270223
3 *1818:A 0.000226833
4 *1656:Y 0.00015579
5 *367:20 0.000808563
6 *367:12 0.000311506
7 *367:10 0.00015579
8 *1818:A *1818:B 4.63794e-05
9 *1818:A *464:10 7.91206e-05
10 *1818:A *465:8 0.000412139
11 *1818:A *688:124 8.34135e-05
12 *2393:A *539:48 0.000443679
13 *2393:A *755:6 0.000225399
14 *2393:A *755:19 9.84794e-05
15 *367:10 *1825:B 0
16 *367:10 *676:10 4.59027e-05
17 *367:20 *464:10 4.59027e-05
18 *367:20 *465:8 0.000158229
19 *365:10 *367:20 0
20 *365:20 *367:10 9.67842e-05
21 *366:10 *367:10 9.98891e-05
*RES
1 *1656:Y *367:10 41.7079 
2 *367:10 *367:12 15 
3 *367:12 *367:20 20.7586 
4 *367:20 *1818:A 45.0221 
5 *367:20 *2393:A 45.2914 
6 *367:12 *2266:A 23 
*END

*D_NET *368 0.00451634
*CONN
*I *1673:B I *D sky130_fd_sc_hd__and2b_2
*I *1681:C1 I *D sky130_fd_sc_hd__o211a_2
*I *1657:Y O *D sky130_fd_sc_hd__nand4_2
*CAP
1 *1673:B 0
2 *1681:C1 0
3 *1657:Y 3.2745e-05
4 *368:39 0.00097352
5 *368:18 0.000507694
6 *368:6 0.00151396
7 *368:18 *1681:A2 6.07826e-05
8 *368:18 *372:14 4.08641e-05
9 *368:18 *373:8 0.000112303
10 *368:18 *373:28 1.94058e-05
11 *368:18 *771:30 0.00012099
12 *368:39 *1657:A 7.73272e-05
13 *368:39 *2115:CLK 5.25626e-05
14 *368:39 *385:20 8.3843e-05
15 *368:39 *385:29 0.000408775
16 *368:39 *541:65 1.88909e-05
17 *368:39 *542:22 2.69675e-05
18 *368:39 *674:58 2.56111e-05
19 *368:39 *771:44 9.39056e-05
20 *309:16 *368:39 0.000148615
21 *310:8 *368:39 5.28962e-05
22 *359:6 *368:39 2.13733e-05
23 *359:12 *368:6 3.85196e-05
24 *359:12 *368:18 6.51772e-05
25 *359:12 *368:39 1.96141e-05
*RES
1 *1657:Y *368:6 23.8493 
2 *368:6 *368:18 38.845 
3 *368:18 *1681:C1 23 
4 *368:6 *368:39 48.3529 
5 *368:39 *1673:B 23 
*END

*D_NET *369 0.000725588
*CONN
*I *1660:A I *D sky130_fd_sc_hd__nor2_2
*I *1658:X O *D sky130_fd_sc_hd__or3b_2
*CAP
1 *1660:A 0
2 *1658:X 0.000277556
3 *369:10 0.000277556
4 *369:10 *1658:C_N 0.000105386
5 *369:10 *370:10 1.14452e-05
6 *369:10 *673:10 0
7 *369:10 *754:23 5.36457e-05
8 *240:10 *369:10 0
*RES
1 *1658:X *369:10 43.6964 
2 *369:10 *1660:A 38 
*END

*D_NET *370 0.00185066
*CONN
*I *1660:B I *D sky130_fd_sc_hd__nor2_2
*I *1659:X O *D sky130_fd_sc_hd__or4_2
*CAP
1 *1660:B 0
2 *1659:X 0.000863011
3 *370:10 0.000863011
4 *370:10 *673:10 0
5 *370:10 *753:10 0.000107016
6 *370:10 *753:12 6.17437e-06
7 *370:10 *753:66 0
8 *369:10 *370:10 1.14452e-05
*RES
1 *1659:X *370:10 49.5793 
2 *370:10 *1660:B 38 
*END

*D_NET *371 0.00190327
*CONN
*I *1684:C I *D sky130_fd_sc_hd__and3_2
*I *1661:C I *D sky130_fd_sc_hd__and3_2
*I *1660:Y O *D sky130_fd_sc_hd__nor2_2
*CAP
1 *1684:C 0.000231973
2 *1661:C 0
3 *1660:Y 0.000465152
4 *371:6 0.000697125
5 *1684:C *387:10 8.15864e-05
6 *1684:C *696:80 2.18409e-05
7 *371:6 *696:61 9.91101e-05
8 *371:6 *696:80 0.000279493
9 *240:10 *371:6 1.05235e-05
10 *359:38 *1684:C 1.64699e-05
*RES
1 *1660:Y *371:6 31.2443 
2 *371:6 *1661:C 23 
3 *371:6 *1684:C 26.5007 
*END

*D_NET *372 0.00267544
*CONN
*I *1683:A I *D sky130_fd_sc_hd__nor2_2
*I *1662:C I *D sky130_fd_sc_hd__and3_2
*I *1681:A2 I *D sky130_fd_sc_hd__o211a_2
*I *1661:X O *D sky130_fd_sc_hd__and3_2
*CAP
1 *1683:A 0.000111728
2 *1662:C 4.24857e-05
3 *1681:A2 0.000186482
4 *1661:X 0.000204541
5 *372:14 0.00053159
6 *372:12 0.000618892
7 *1662:C *757:39 5.50106e-05
8 *1681:A2 *373:8 6.76389e-06
9 *1681:A2 *385:20 1.05441e-05
10 *1681:A2 *674:44 2.72882e-05
11 *1681:A2 *757:51 0
12 *1681:A2 *771:30 0.000140958
13 *1683:A *773:14 8.19612e-05
14 *372:12 *1661:A 6.32688e-05
15 *372:12 *696:80 1.92253e-05
16 *372:12 *770:19 1.83667e-05
17 *372:14 *1657:B 1.37246e-05
18 *372:14 *386:10 0
19 *372:14 *635:8 0.000357939
20 *372:14 *674:44 5.59881e-05
21 *372:14 *696:61 0
22 *372:14 *770:19 2.70366e-05
23 *372:14 *771:44 0
24 *368:18 *1681:A2 6.07826e-05
25 *368:18 *372:14 4.08641e-05
*RES
1 *1661:X *372:12 41.5007 
2 *372:12 *372:14 7.54 
3 *372:14 *1681:A2 42.0186 
4 *372:14 *1662:C 38.6214 
5 *372:12 *1683:A 40.5271 
*END

*D_NET *373 0.00320007
*CONN
*I *1674:A I *D sky130_fd_sc_hd__nor2_2
*I *1663:B I *D sky130_fd_sc_hd__and2_2
*I *1672:B I *D sky130_fd_sc_hd__xor2_2
*I *1662:X O *D sky130_fd_sc_hd__and3_2
*CAP
1 *1674:A 3.84216e-05
2 *1663:B 3.60208e-05
3 *1672:B 0.000110656
4 *1662:X 8.7344e-05
5 *373:28 0.000690616
6 *373:12 0.000584977
7 *373:8 8.99604e-05
8 *1663:B *1663:A 9.91024e-05
9 *1663:B *374:6 4.93812e-05
10 *1663:B *696:20 0.000189176
11 *1672:B *600:8 0.00014411
12 *1672:B *758:14 0.000171906
13 *1672:B *758:46 5.01986e-05
14 *1674:A *1674:B 6.36064e-05
15 *373:8 *696:112 1.83046e-05
16 *373:8 *771:30 1.37246e-05
17 *373:12 *771:30 1.46301e-06
18 *373:28 *1674:B 6.31675e-06
19 *373:28 *379:12 0.000429178
20 *373:28 *385:20 8.50457e-05
21 *373:28 *771:30 1.7706e-05
22 *1681:A2 *373:8 6.76389e-06
23 *309:16 *1674:A 5.65647e-05
24 *309:16 *373:8 2.78179e-05
25 *368:18 *373:8 0.000112303
26 *368:18 *373:28 1.94058e-05
*RES
1 *1662:X *373:8 40.2061 
2 *373:8 *373:12 15.1864 
3 *373:12 *373:28 26.0304 
4 *373:28 *1672:B 18.3143 
5 *373:28 *1663:B 40.0507 
6 *373:12 *1674:A 24.2532 
*END

*D_NET *374 0.00520496
*CONN
*I *1669:A2 I *D sky130_fd_sc_hd__a21oi_2
*I *1664:C I *D sky130_fd_sc_hd__and3_2
*I *1671:B I *D sky130_fd_sc_hd__xor2_2
*I *1663:X O *D sky130_fd_sc_hd__and2_2
*CAP
1 *1669:A2 0.000154773
2 *1664:C 0.000499231
3 *1671:B 0.000152217
4 *1663:X 0.00028566
5 *374:19 0.000763475
6 *374:6 0.000547349
7 *1664:C *1664:B 5.14746e-06
8 *1664:C *2077:CLK 0.000111253
9 *1664:C *698:37 0
10 *1664:C *758:22 3.47781e-05
11 *1664:C *759:6 1.55671e-05
12 *1664:C *759:10 4.31263e-05
13 *1664:C *759:21 4.91387e-05
14 *1664:C *760:12 0.000166666
15 *1669:A2 *2077:CLK 2.12303e-05
16 *1669:A2 *541:65 2.79603e-05
17 *1669:A2 *758:22 0.000242275
18 *1671:B *695:14 0
19 *374:6 *1663:A 0.000139969
20 *374:6 *2201:A 0.000176497
21 *374:6 *695:14 5.50106e-05
22 *374:6 *696:20 0.000142219
23 *374:6 *758:20 0.000533716
24 *374:19 *695:63 9.24795e-06
25 *374:19 *696:20 1.94812e-05
26 *374:19 *700:35 0.00044107
27 *374:19 *758:20 0.000513887
28 *1663:B *374:6 4.93812e-05
29 *203:8 *1671:B 0
30 *205:10 *1664:C 0
31 *206:8 *1664:C 0
32 *311:10 *1671:B 4.6318e-06
*RES
1 *1663:X *374:6 32.1971 
2 *374:6 *1671:B 32.61 
3 *374:6 *374:19 20.8621 
4 *374:19 *1664:C 48.9993 
5 *374:19 *1669:A2 41.3143 
*END

*D_NET *375 0.00161205
*CONN
*I *1665:B I *D sky130_fd_sc_hd__nand2_2
*I *1667:B I *D sky130_fd_sc_hd__or2_2
*I *1670:A I *D sky130_fd_sc_hd__nor2_2
*I *1664:X O *D sky130_fd_sc_hd__and3_2
*CAP
1 *1665:B 0
2 *1667:B 0
3 *1670:A 0
4 *1664:X 6.36049e-05
5 *375:30 0.000164553
6 *375:17 0.000378591
7 *375:6 0.000277643
8 *375:17 *377:8 2.4754e-05
9 *375:17 *761:24 3.76702e-05
10 *375:30 *2166:A 9.84794e-05
11 *375:30 *377:20 5.61311e-05
12 *375:30 *700:10 1.58805e-05
13 *375:30 *700:21 0.00012478
14 *375:30 *701:82 0
15 *375:30 *761:24 0.000143655
16 *313:10 *375:17 0.000226306
*RES
1 *1664:X *375:6 24.0979 
2 *375:6 *1670:A 23 
3 *375:6 *375:17 5.30286 
4 *375:17 *1667:B 23 
5 *375:17 *375:30 35.2407 
6 *375:30 *1665:B 23 
*END

*D_NET *376 0.00329721
*CONN
*I *1666:B I *D sky130_fd_sc_hd__xnor2_2
*I *1668:A I *D sky130_fd_sc_hd__and2_2
*I *1665:Y O *D sky130_fd_sc_hd__nand2_2
*CAP
1 *1666:B 0
2 *1668:A 0
3 *1665:Y 8.48252e-05
4 *376:22 0.000636326
5 *376:12 0.000747495
6 *376:8 0.000195994
7 *376:8 *700:21 8.16253e-05
8 *376:8 *761:14 5.26101e-05
9 *376:12 *2081:CLK 0.000224605
10 *376:22 *2130:A 3.26035e-05
11 *376:22 *377:20 0.000869962
12 *376:22 *542:10 5.3304e-05
13 *376:22 *578:10 1.14452e-05
14 *376:22 *700:21 7.06124e-05
15 *376:22 *700:46 0.000176283
16 *314:10 *376:22 5.95211e-05
*RES
1 *1665:Y *376:8 40.2579 
2 *376:8 *376:12 17.5271 
3 *376:12 *376:22 48.0007 
4 *376:22 *1668:A 23 
5 *376:12 *1666:B 23 
*END

*D_NET *377 0.00395365
*CONN
*I *1668:B I *D sky130_fd_sc_hd__and2_2
*I *1667:X O *D sky130_fd_sc_hd__or2_2
*CAP
1 *1668:B 0
2 *1667:X 0.000113976
3 *377:20 0.00105746
4 *377:8 0.00117144
5 *377:20 *2079:CLK 0
6 *377:20 *541:12 0
7 *377:20 *542:10 5.94125e-05
8 *377:20 *578:10 0.00014411
9 *377:20 *585:10 0
10 *377:20 *700:21 0
11 *306:10 *377:20 9.11685e-05
12 *313:10 *377:8 9.58714e-05
13 *313:10 *377:20 0.000141879
14 *314:10 *377:20 0.000127485
15 *375:17 *377:8 2.4754e-05
16 *375:30 *377:20 5.61311e-05
17 *376:22 *377:20 0.000869962
*RES
1 *1667:X *377:8 39.5743 
2 *377:8 *377:20 38.925 
3 *377:20 *1668:B 23 
*END

*D_NET *378 0.00035503
*CONN
*I *2187:A I *D sky130_fd_sc_hd__dlygate4sd3_1
*I *1669:Y O *D sky130_fd_sc_hd__a21oi_2
*CAP
1 *2187:A 0
2 *1669:Y 9.07794e-05
3 *378:8 9.07794e-05
4 *378:8 *1678:C 0
5 *378:8 *383:12 5.75756e-06
6 *378:8 *584:10 0.000167713
*RES
1 *1669:Y *378:8 40.2579 
2 *378:8 *2187:A 38 
*END

*D_NET *379 0.00179516
*CONN
*I *1674:B I *D sky130_fd_sc_hd__nor2_2
*I *1673:X O *D sky130_fd_sc_hd__and2b_2
*CAP
1 *1674:B 0.000111984
2 *1673:X 0.000499995
3 *379:12 0.000611979
4 *1674:B *385:10 0
5 *1674:B *696:112 6.45119e-06
6 *379:12 *2115:CLK 5.34712e-05
7 *379:12 *385:20 1.21761e-05
8 *1674:A *1674:B 6.36064e-05
9 *309:16 *379:12 0
10 *310:8 *379:12 0
11 *373:28 *1674:B 6.31675e-06
12 *373:28 *379:12 0.000429178
*RES
1 *1673:X *379:12 46.8036 
2 *379:12 *1674:B 40.3614 
*END

*D_NET *380 0.00124487
*CONN
*I *1676:D I *D sky130_fd_sc_hd__or4_2
*I *1675:X O *D sky130_fd_sc_hd__or4b_2
*CAP
1 *1676:D 0
2 *1675:X 0.000283986
3 *380:10 0.000283986
4 *380:10 *1675:B 0.000135699
5 *380:10 *542:22 0
6 *380:10 *769:35 0.000159823
7 *380:10 *770:56 1.88972e-05
8 *380:10 *771:16 0.000325457
9 *356:10 *380:10 3.70187e-05
*RES
1 *1675:X *380:10 43.6964 
2 *380:10 *1676:D 38 
*END

*D_NET *381 0.00140187
*CONN
*I *1679:A I *D sky130_fd_sc_hd__nor3_2
*I *1676:X O *D sky130_fd_sc_hd__or4_2
*CAP
1 *1679:A 0
2 *1676:X 0.000424756
3 *381:10 0.000424756
4 *381:10 *1676:A 0.000245157
5 *381:10 *383:25 0
6 *381:10 *384:8 0.000112297
7 *381:10 *542:22 8.06804e-06
8 *381:10 *758:22 0.000186832
*RES
1 *1676:X *381:10 45.7264 
2 *381:10 *1679:A 38 
*END

*D_NET *382 0.00180111
*CONN
*I *1679:B I *D sky130_fd_sc_hd__nor3_2
*I *1677:X O *D sky130_fd_sc_hd__or4_2
*CAP
1 *1679:B 0.000203053
2 *1677:X 0.000307177
3 *382:8 0.00051023
4 *1679:B *768:12 0.000211937
5 *382:8 *475:8 0.000133247
6 *382:8 *757:10 0.000239819
7 *382:8 *757:24 3.31683e-05
8 *382:8 *768:20 0.000162477
9 *382:8 *769:33 0
10 *382:8 *770:56 0
*RES
1 *1677:X *382:8 45.1879 
2 *382:8 *1679:B 41.9771 
*END

*D_NET *383 0.00287709
*CONN
*I *1840:A I *D sky130_fd_sc_hd__or4_2
*I *1679:C I *D sky130_fd_sc_hd__nor3_2
*I *1678:X O *D sky130_fd_sc_hd__or4_2
*CAP
1 *1840:A 0
2 *1679:C 0
3 *1678:X 0.000373093
4 *383:25 0.000910149
5 *383:12 0.00128324
6 *383:12 *1678:C 3.08087e-05
7 *383:12 *535:245 2.05505e-05
8 *383:12 *584:10 1.22217e-05
9 *383:12 *761:40 6.89359e-06
10 *383:12 *762:35 0.000102971
11 *383:25 *1676:A 0
12 *383:25 *1687:A 0
13 *383:25 *384:8 0
14 *383:25 *389:14 0
15 *383:25 *390:8 8.05936e-05
16 *383:25 *475:8 0
17 *383:25 *535:245 4.74648e-05
18 *383:25 *535:259 3.34818e-06
19 *383:25 *542:10 0
20 *383:25 *767:25 0
21 *306:10 *383:25 0
22 *357:8 *383:25 0
23 *378:8 *383:12 5.75756e-06
24 *381:10 *383:25 0
*RES
1 *1678:X *383:12 44.6907 
2 *383:12 *1679:C 38 
3 *383:12 *383:25 28.9407 
4 *383:25 *1840:A 23 
*END

*D_NET *384 0.00141258
*CONN
*I *1680:B I *D sky130_fd_sc_hd__nand2_2
*I *1679:Y O *D sky130_fd_sc_hd__nor3_2
*CAP
1 *1680:B 0.000408382
2 *1679:Y 7.2338e-05
3 *384:8 0.00048072
4 *1680:B *1838:A 0.000135037
5 *1680:B *1838:C_N 5.3304e-05
6 *1680:B *674:58 2.93104e-06
7 *1680:B *757:24 5.61255e-06
8 *1680:B *768:20 0.000141954
9 *381:10 *384:8 0.000112297
10 *383:25 *384:8 0
*RES
1 *1679:Y *384:8 39.5536 
2 *384:8 *1680:B 44.3593 
*END

*D_NET *385 0.00796577
*CONN
*I *1701:A I *D sky130_fd_sc_hd__and2_2
*I *1698:A I *D sky130_fd_sc_hd__and3_2
*I *1705:A I *D sky130_fd_sc_hd__and3_2
*I *1681:B1 I *D sky130_fd_sc_hd__o211a_2
*I *1680:Y O *D sky130_fd_sc_hd__nand2_2
*CAP
1 *1701:A 0
2 *1698:A 0
3 *1705:A 0.000531447
4 *1681:B1 0
5 *1680:Y 7.35094e-05
6 *385:56 0.00013964
7 *385:48 0.000401901
8 *385:29 0.00146448
9 *385:20 0.000609384
10 *385:10 0.00135367
11 *1705:A *1702:A1 0.000119357
12 *1705:A *1702:A2 5.68958e-05
13 *1705:A *1702:B1 0.000101635
14 *1705:A *387:14 0.000137651
15 *385:10 *674:58 8.06804e-06
16 *385:10 *696:112 6.17437e-06
17 *385:20 *542:22 8.60837e-05
18 *385:20 *757:51 0
19 *385:20 *771:8 0.000134949
20 *385:29 *1837:A 8.75792e-05
21 *385:29 *542:22 0.000318548
22 *385:29 *756:12 6.42827e-05
23 *385:29 *756:18 0.00020878
24 *385:29 *763:12 5.10756e-05
25 *385:29 *763:18 0.000144154
26 *385:29 *769:18 0
27 *385:29 *771:44 1.69668e-05
28 *385:48 *1699:B 7.53384e-06
29 *385:48 *1701:B 5.50049e-05
30 *385:48 *1702:A1 0.000140259
31 *385:48 *387:14 0.000164201
32 *385:48 *756:10 6.7177e-06
33 *385:48 *756:12 1.62015e-05
34 *385:48 *763:12 3.62323e-05
35 *385:56 *1690:A 5.3304e-05
36 *385:56 *394:10 5.71002e-06
37 *385:56 *398:10 0.000249602
38 *385:56 *764:14 5.58003e-05
39 *385:56 *764:25 0.000222955
40 *1674:B *385:10 0
41 *1681:A2 *385:20 1.05441e-05
42 *2075:RESET_B *385:20 0.000178599
43 *302:10 *385:48 5.70419e-05
44 *356:10 *385:29 0
45 *359:38 *385:29 0
46 *368:39 *385:20 8.3843e-05
47 *368:39 *385:29 0.000408775
48 *373:28 *385:20 8.50457e-05
49 *379:12 *385:20 1.21761e-05
*RES
1 *1680:Y *385:10 39.1186 
2 *385:10 *385:20 39.4457 
3 *385:20 *1681:B1 38 
4 *385:10 *385:29 17.0479 
5 *385:29 *1705:A 46.8864 
6 *385:29 *385:48 21.5871 
7 *385:48 *385:56 34.4121 
8 *385:56 *1698:A 23 
9 *385:48 *1701:A 23 
*END

*D_NET *386 0.000941979
*CONN
*I *1683:B I *D sky130_fd_sc_hd__nor2_2
*I *1682:Y O *D sky130_fd_sc_hd__a21oi_2
*CAP
1 *1683:B 0
2 *1682:Y 0.000174935
3 *386:10 0.000174935
4 *386:10 *674:36 3.22465e-05
5 *386:10 *696:61 0.000387957
6 *201:10 *386:10 0.000171906
7 *372:14 *386:10 0
*RES
1 *1682:Y *386:10 43.6964 
2 *386:10 *1683:B 38 
*END

*D_NET *387 0.00534546
*CONN
*I *1703:A I *D sky130_fd_sc_hd__nor2_2
*I *1699:B I *D sky130_fd_sc_hd__nor2_2
*I *1685:C I *D sky130_fd_sc_hd__and3_2
*I *1684:X O *D sky130_fd_sc_hd__and3_2
*CAP
1 *1703:A 0.000370228
2 *1699:B 0.000120084
3 *1685:C 0
4 *1684:X 0.00019819
5 *387:24 0.000431628
6 *387:14 0.000834916
7 *387:10 0.000851622
8 *1703:A *1956:A 0.000220086
9 *1703:A *645:14 0.000407259
10 *1703:A *696:80 0.000100069
11 *1703:A *763:10 0.000126363
12 *1703:A *763:12 0.000298922
13 *387:10 *1684:A 5.50049e-05
14 *387:10 *1684:B 1.5769e-05
15 *387:10 *696:80 0
16 *387:10 *763:12 0.000125733
17 *387:10 *763:18 3.18198e-05
18 *387:14 *1701:B 5.67058e-05
19 *387:14 *1702:A1 0.000265472
20 *387:24 *1685:A 0.00010018
21 *387:24 *756:12 0
22 *387:24 *764:27 8.62876e-05
23 *387:24 *764:53 3.38187e-05
24 *1684:C *387:10 8.15864e-05
25 *1705:A *387:14 0.000137651
26 *193:10 *1703:A 9.62366e-05
27 *359:38 *387:10 0.000128096
28 *385:48 *1699:B 7.53384e-06
29 *385:48 *387:14 0.000164201
*RES
1 *1684:X *387:10 43.2614 
2 *387:10 *387:14 21.815 
3 *387:14 *387:24 36.6079 
4 *387:24 *1685:C 23 
5 *387:14 *1699:B 25.0714 
6 *387:10 *1703:A 48.2329 
*END

*D_NET *388 0.00173133
*CONN
*I *1695:B I *D sky130_fd_sc_hd__nor2_2
*I *1686:B I *D sky130_fd_sc_hd__and2_2
*I *1685:X O *D sky130_fd_sc_hd__and3_2
*CAP
1 *1695:B 0
2 *1686:B 0
3 *1685:X 0.000234529
4 *388:25 0.000213708
5 *388:12 0.000120223
6 *388:6 0.00056846
7 *388:6 *1696:A 2.93747e-05
8 *388:12 *389:44 7.96355e-05
9 *388:12 *395:10 6.10781e-05
10 *388:12 *542:43 0.000168754
11 *388:12 *542:60 7.869e-05
12 *388:12 *542:73 5.0534e-05
13 *388:12 *765:16 0
14 *388:12 *767:25 0
15 *388:25 *1959:A 0
16 *388:25 *542:73 6.6869e-05
17 *388:25 *766:14 1.01436e-05
18 *2070:D *388:6 3.7122e-06
19 *2070:D *388:25 4.56219e-05
*RES
1 *1685:X *388:6 26.0036 
2 *388:6 *388:12 34.0186 
3 *388:12 *1686:B 23 
4 *388:6 *388:25 33.48 
5 *388:25 *1695:B 23 
*END

*D_NET *389 0.0029792
*CONN
*I *1696:A I *D sky130_fd_sc_hd__nor2_2
*I *1694:B I *D sky130_fd_sc_hd__xor2_2
*I *1688:C I *D sky130_fd_sc_hd__and3_2
*I *1687:B I *D sky130_fd_sc_hd__nand2_2
*I *1686:X O *D sky130_fd_sc_hd__and2_2
*CAP
1 *1696:A 3.09722e-05
2 *1694:B 0
3 *1688:C 0.000349271
4 *1687:B 0.000101533
5 *1686:X 0.000237829
6 *389:44 0.000127408
7 *389:14 0.000603993
8 *389:10 0.000294582
9 *1687:B *768:61 7.88828e-05
10 *1688:C *2205:A 0.00039759
11 *1688:C *768:61 0.000123934
12 *389:10 *542:43 0.000141869
13 *389:10 *766:18 9.84794e-05
14 *389:10 *767:25 0
15 *389:14 *1687:A 0
16 *389:14 *390:8 0
17 *389:14 *542:43 0.000274562
18 *389:14 *767:25 0
19 *389:44 *395:10 9.28078e-06
20 *389:44 *765:16 0
21 *383:25 *389:14 0
22 *388:6 *1696:A 2.93747e-05
23 *388:12 *389:44 7.96355e-05
*RES
1 *1686:X *389:10 41.0036 
2 *389:10 *389:14 18.6664 
3 *389:14 *1687:B 25.0714 
4 *389:14 *1688:C 30.2914 
5 *389:10 *1694:B 15 
6 *1686:X *389:44 40.2579 
7 *389:44 *1696:A 38.6214 
*END

*D_NET *390 0.000557168
*CONN
*I *1693:B I *D sky130_fd_sc_hd__xnor2_2
*I *1687:Y O *D sky130_fd_sc_hd__nand2_2
*CAP
1 *1693:B 5.26339e-05
2 *1687:Y 0.000114674
3 *390:8 0.000167308
4 *1693:B *542:14 0.00014196
5 *390:8 *542:43 0
6 *390:8 *605:8 0
7 *383:25 *390:8 8.05936e-05
8 *389:14 *390:8 0
*RES
1 *1687:Y *390:8 40.2579 
2 *390:8 *1693:B 39.5743 
*END

*D_NET *391 0.000334637
*CONN
*I *1692:B I *D sky130_fd_sc_hd__xor2_2
*I *1688:X O *D sky130_fd_sc_hd__and3_2
*CAP
1 *1692:B 0
2 *1688:X 8.13659e-05
3 *391:8 8.13659e-05
4 *391:8 *699:58 0.000171906
5 *391:8 *700:59 0
*RES
1 *1688:X *391:8 40.2579 
2 *391:8 *1692:B 15 
*END

*D_NET *392 0.000901321
*CONN
*I *1705:B I *D sky130_fd_sc_hd__and3_2
*I *1689:Y O *D sky130_fd_sc_hd__nand2_2
*CAP
1 *1705:B 0.000157655
2 *1689:Y 5.96324e-05
3 *392:8 0.000217287
4 *1705:B *1702:A2 6.82416e-05
5 *392:8 *2067:CLK 3.6909e-05
6 *392:8 *540:79 0.000141879
7 *392:8 *773:18 0.000166413
8 *300:10 *1705:B 5.3304e-05
*RES
1 *1689:Y *392:8 40.2579 
2 *392:8 *1705:B 40.0507 
*END

*D_NET *393 0.00146026
*CONN
*I *1700:A I *D sky130_fd_sc_hd__nor2_2
*I *1697:B I *D sky130_fd_sc_hd__or2_2
*I *1691:B I *D sky130_fd_sc_hd__nand2_2
*I *1690:X O *D sky130_fd_sc_hd__and4_2
*CAP
1 *1700:A 0.000133287
2 *1697:B 0
3 *1691:B 0
4 *1690:X 0.000314947
5 *393:17 0.000190751
6 *393:10 5.7464e-05
7 *393:8 0.000314947
8 *1700:A *1691:A 5.00237e-05
9 *1700:A *1697:A 5.55743e-06
10 *1700:A *398:10 0.000145171
11 *1700:A *765:60 0.000102944
12 *393:17 *1691:A 0.000145171
*RES
1 *1690:X *393:8 43.075 
2 *393:8 *393:10 15 
3 *393:10 *1691:B 23 
4 *393:10 *393:17 1.57429 
5 *393:17 *1697:B 23 
6 *393:17 *1700:A 26.9979 
*END

*D_NET *394 0.00191449
*CONN
*I *1698:B I *D sky130_fd_sc_hd__and3_2
*I *1691:Y O *D sky130_fd_sc_hd__nand2_2
*CAP
1 *1698:B 4.39962e-05
2 *1691:Y 0.000538885
3 *394:10 0.000582881
4 *1698:B *764:14 1.94812e-05
5 *394:10 *1691:A 0.0001296
6 *394:10 *396:10 0.000442486
7 *394:10 *397:8 6.62566e-05
8 *394:10 *764:25 4.75028e-05
9 *394:10 *765:60 3.76959e-05
10 *385:56 *394:10 5.71002e-06
*RES
1 *1691:Y *394:10 48.6886 
2 *394:10 *1698:B 38.6214 
*END

*D_NET *395 0.000680192
*CONN
*I *1696:B I *D sky130_fd_sc_hd__nor2_2
*I *1695:Y O *D sky130_fd_sc_hd__nor2_2
*CAP
1 *1696:B 0
2 *1695:Y 0.000288044
3 *395:10 0.000288044
4 *395:10 *542:73 3.3746e-05
5 *395:10 *765:10 0
6 *388:12 *395:10 6.10781e-05
7 *389:44 *395:10 9.28078e-06
*RES
1 *1695:Y *395:10 41.9564 
2 *395:10 *1696:B 38 
*END

*D_NET *396 0.00128335
*CONN
*I *1698:C I *D sky130_fd_sc_hd__and3_2
*I *1697:X O *D sky130_fd_sc_hd__or2_2
*CAP
1 *1698:C 0
2 *1697:X 0.000163105
3 *396:10 0.000163105
4 *396:10 *397:8 0.00032481
5 *396:10 *765:60 0.000189848
6 *394:10 *396:10 0.000442486
*RES
1 *1697:X *396:10 44.4214 
2 *396:10 *1698:C 38 
*END

*D_NET *397 0.00126659
*CONN
*I *1700:B I *D sky130_fd_sc_hd__nor2_2
*I *1699:Y O *D sky130_fd_sc_hd__nor2_2
*CAP
1 *1700:B 0
2 *1699:Y 0.000327427
3 *397:8 0.000327427
4 *397:8 *764:10 0.000220674
5 *397:8 *764:25 0
6 *397:8 *765:10 0
7 *397:8 *765:60 0
8 *394:10 *397:8 6.62566e-05
9 *396:10 *397:8 0.00032481
*RES
1 *1699:Y *397:8 46.5964 
2 *397:8 *1700:B 38 
*END

*D_NET *398 0.00201967
*CONN
*I *1701:B I *D sky130_fd_sc_hd__and2_2
*I *1700:Y O *D sky130_fd_sc_hd__nor2_2
*CAP
1 *1701:B 1.08768e-05
2 *1700:Y 0.000569094
3 *398:10 0.000579971
4 *398:10 *756:10 0
5 *398:10 *764:25 6.61686e-06
6 *398:10 *764:27 4.6318e-06
7 *398:10 *765:60 1.61385e-05
8 *1700:A *398:10 0.000145171
9 *302:10 *398:10 0.000325859
10 *385:48 *1701:B 5.50049e-05
11 *385:56 *398:10 0.000249602
12 *387:14 *1701:B 5.67058e-05
*RES
1 *1700:Y *398:10 49.7036 
2 *398:10 *1701:B 38.6214 
*END

*D_NET *399 0.00110545
*CONN
*I *1703:B I *D sky130_fd_sc_hd__nor2_2
*I *1702:Y O *D sky130_fd_sc_hd__a21oi_2
*CAP
1 *1703:B 4.23615e-05
2 *1702:Y 0.000251147
3 *399:10 0.000293509
4 *399:10 *1702:A1 9.8203e-05
5 *399:10 *673:51 0.000100029
6 *399:10 *696:80 0.000207801
7 *193:10 *399:10 0.000112396
8 *300:10 *399:10 0
*RES
1 *1702:Y *399:10 44.1729 
2 *399:10 *1703:B 38.6214 
*END

*D_NET *400 0.00119408
*CONN
*I *1705:C I *D sky130_fd_sc_hd__and3_2
*I *1704:X O *D sky130_fd_sc_hd__or2_2
*CAP
1 *1705:C 5.17314e-05
2 *1704:X 0.000177433
3 *400:8 0.000229165
4 *1705:C *1702:A2 5.41385e-05
5 *400:8 *696:80 0
6 *400:8 *756:91 2.99696e-05
7 *400:8 *773:18 0.000429808
8 *300:10 *400:8 0.000221839
*RES
1 *1704:X *400:8 43.7793 
2 *400:8 *1705:C 39.0979 
*END

*D_NET *401 0.0029137
*CONN
*I *1707:B I *D sky130_fd_sc_hd__nor2_2
*I *1731:B1 I *D sky130_fd_sc_hd__a21oi_2
*I *1706:X O *D sky130_fd_sc_hd__and4b_2
*CAP
1 *1707:B 0
2 *1731:B1 0
3 *1706:X 0
4 *401:29 0.000346192
5 *401:12 0.000373444
6 *401:4 0.000719636
7 *401:12 *415:33 9.78156e-05
8 *401:12 *724:16 0.000295058
9 *401:29 *402:6 3.18142e-05
10 *401:29 *403:12 8.29264e-05
11 *401:29 *705:57 5.20427e-05
12 *401:29 *705:67 3.23857e-06
13 *401:29 *733:20 0.000154613
14 *401:29 *733:36 2.11066e-05
15 *401:29 *738:39 5.04675e-05
16 *401:29 *739:32 0.000109352
17 *322:10 *401:29 1.24376e-05
18 *322:24 *401:12 4.67488e-05
19 *322:24 *401:29 1.35425e-05
20 *329:12 *401:12 0.000503262
*RES
1 *1706:X *401:4 23 
2 *401:4 *401:12 38.8864 
3 *401:12 *1731:B1 23 
4 *401:4 *401:29 37.0636 
5 *401:29 *1707:B 23 
*END

*D_NET *402 0.00500921
*CONN
*I *1713:A2 I *D sky130_fd_sc_hd__o31ai_2
*I *1711:B1_N I *D sky130_fd_sc_hd__o21ba_2
*I *1710:A2 I *D sky130_fd_sc_hd__o21ba_2
*I *1707:Y O *D sky130_fd_sc_hd__nor2_2
*CAP
1 *1713:A2 0.000119233
2 *1711:B1_N 0.000196368
3 *1710:A2 0.000131608
4 *1707:Y 0.000476188
5 *402:10 0.000373069
6 *402:8 0.000164327
7 *402:6 0.000476188
8 *1710:A2 *666:16 0.000184405
9 *1710:A2 *679:23 1.01436e-05
10 *1710:A2 *679:48 0.000149507
11 *1710:A2 *705:22 9.75779e-05
12 *1710:A2 *705:30 5.50106e-05
13 *1711:B1_N *1711:A2 5.50106e-05
14 *1711:B1_N *1853:A 0.000306338
15 *1711:B1_N *1858:A1 5.3304e-05
16 *1711:B1_N *486:6 1.03836e-05
17 *1711:B1_N *619:6 0.000135143
18 *1713:A2 *404:16 2.64616e-05
19 *1713:A2 *405:8 2.64616e-05
20 *1713:A2 *666:10 0.000175612
21 *1713:A2 *679:48 0.000185755
22 *402:6 *1853:A 4.90986e-05
23 *402:6 *1858:A1 4.67488e-05
24 *402:6 *1858:A2 0.00010018
25 *402:6 *453:10 2.98648e-05
26 *402:6 *482:27 6.68048e-05
27 *402:6 *483:18 0.000264559
28 *402:6 *705:57 1.14762e-05
29 *402:6 *705:67 0.000233367
30 *402:6 *738:39 0.000353097
31 *402:10 *666:10 6.11099e-05
32 *402:10 *666:16 2.2539e-05
33 *402:10 *679:48 8.3649e-05
34 *190:10 *402:6 5.67058e-05
35 *254:14 *1710:A2 0.000180218
36 *322:10 *402:6 9.87985e-06
37 *401:29 *402:6 3.18142e-05
*RES
1 *1707:Y *402:6 35.0557 
2 *402:6 *402:8 15 
3 *402:8 *402:10 1.20143 
4 *402:10 *1710:A2 42.3086 
5 *402:10 *1711:B1_N 42.93 
6 *402:8 *1713:A2 41.2314 
*END

*D_NET *403 0.00243532
*CONN
*I *1709:B I *D sky130_fd_sc_hd__nor2_2
*I *1728:B1 I *D sky130_fd_sc_hd__a21oi_2
*I *1708:X O *D sky130_fd_sc_hd__and4b_2
*CAP
1 *1709:B 9.68303e-05
2 *1728:B1 5.64012e-05
3 *1708:X 0.000696635
4 *403:12 0.000656206
5 *1709:B *1709:A 3.7685e-05
6 *1728:B1 *416:10 2.46906e-05
7 *1728:B1 *544:60 0.000102389
8 *403:12 *1708:D 4.8927e-05
9 *403:12 *1709:A 1.96141e-05
10 *403:12 *415:33 0.000237447
11 *403:12 *416:10 0.000134583
12 *403:12 *544:60 1.05658e-05
13 *403:12 *724:16 9.20222e-05
14 *322:24 *403:12 0.000138402
15 *401:29 *403:12 8.29264e-05
*RES
1 *1708:X *403:12 48.5643 
2 *403:12 *1728:B1 39.5743 
3 *1708:X *1709:B 48.0714 
*END

*D_NET *404 0.00473254
*CONN
*I *1713:A3 I *D sky130_fd_sc_hd__o31ai_2
*I *1711:A2 I *D sky130_fd_sc_hd__o21ba_2
*I *1710:B1_N I *D sky130_fd_sc_hd__o21ba_2
*I *1709:Y O *D sky130_fd_sc_hd__nor2_2
*CAP
1 *1713:A3 0
2 *1711:A2 1.49804e-05
3 *1710:B1_N 0.000166183
4 *1709:Y 0.000295503
5 *404:22 0.00040291
6 *404:16 0.000921465
7 *404:8 0.000995221
8 *1710:B1_N *1853:A 4.51431e-05
9 *1710:B1_N *447:26 3.34818e-06
10 *1710:B1_N *666:16 4.96717e-05
11 *1710:B1_N *705:30 4.91169e-05
12 *1711:A2 *619:6 5.50106e-05
13 *404:16 *1713:A1 5.41385e-05
14 *404:16 *405:8 8.45134e-05
15 *404:16 *413:31 0.000175403
16 *404:16 *413:41 0.000473211
17 *404:16 *454:14 3.17634e-05
18 *404:16 *482:27 0.000230753
19 *404:22 *405:8 7.15126e-05
20 *404:22 *447:26 1.73911e-05
21 *404:22 *482:27 1.76557e-05
22 *404:22 *483:61 0.000163352
23 *404:22 *492:43 8.18724e-05
24 *404:22 *666:10 0
25 *404:22 *705:30 1.74874e-06
26 *1711:B1_N *1711:A2 5.50106e-05
27 *1713:A2 *404:16 2.64616e-05
28 *254:14 *1710:B1_N 9.41704e-05
29 *298:8 *1710:B1_N 3.11878e-05
30 *299:8 *1710:B1_N 6.16531e-05
31 *322:10 *404:8 3.54728e-05
32 *322:45 *404:8 2.67179e-05
*RES
1 *1709:Y *404:8 42.3707 
2 *404:8 *404:16 29.9557 
3 *404:16 *404:22 19.8886 
4 *404:22 *1710:B1_N 41.7079 
5 *404:22 *1711:A2 38.6214 
6 *404:16 *1713:A3 23 
*END

*D_NET *405 0.00304749
*CONN
*I *1713:B1 I *D sky130_fd_sc_hd__o31ai_2
*I *1712:X O *D sky130_fd_sc_hd__a31o_2
*CAP
1 *1713:B1 0
2 *1712:X 0.0010965
3 *405:8 0.0010965
4 *405:8 *1713:A1 5.41385e-05
5 *405:8 *413:31 3.66555e-05
6 *405:8 *413:41 4.21979e-05
7 *405:8 *454:14 0.000477634
8 *405:8 *492:43 8.06804e-06
9 *1713:A2 *405:8 2.64616e-05
10 *141:10 *405:8 5.3304e-05
11 *404:16 *405:8 8.45134e-05
12 *404:22 *405:8 7.15126e-05
*RES
1 *1712:X *405:8 38.4114 
2 *405:8 *1713:B1 23 
*END

*D_NET *406 0.0008502
*CONN
*I *1795:A2 I *D sky130_fd_sc_hd__a21bo_2
*I *1714:Y O *D sky130_fd_sc_hd__nand2b_2
*CAP
1 *1795:A2 0
2 *1714:Y 0.000224247
3 *406:10 0.000224247
4 *406:10 *1714:B 5.90497e-05
5 *406:10 *1985:A 0.000196902
6 *223:10 *406:10 0.000145754
*RES
1 *1714:Y *406:10 44.525 
2 *406:10 *1795:A2 38 
*END

*D_NET *407 0.00400825
*CONN
*I *1794:B1 I *D sky130_fd_sc_hd__a211o_2
*I *1718:B1 I *D sky130_fd_sc_hd__a21o_2
*I *1716:A I *D sky130_fd_sc_hd__inv_2
*I *1715:X O *D sky130_fd_sc_hd__and3b_2
*CAP
1 *1794:B1 0.000442461
2 *1718:B1 1.80505e-05
3 *1716:A 0.000254304
4 *1715:X 0.000437391
5 *407:25 0.000569461
6 *407:12 0.000800646
7 *1716:A *537:22 0.000137618
8 *1716:A *537:28 1.76557e-05
9 *1718:B1 *1951:A 2.93747e-05
10 *1718:B1 *2092:CLK 5.50049e-05
11 *1794:B1 *1717:C 8.16253e-05
12 *1794:B1 *2152:A 9.48381e-06
13 *1794:B1 *455:12 0.000128975
14 *1794:B1 *537:10 4.38375e-05
15 *1794:B1 *537:14 6.88922e-05
16 *1794:B1 *537:22 7.75329e-06
17 *1794:B1 *556:88 0
18 *1794:B1 *595:10 0.000194318
19 *1794:B1 *694:16 0
20 *1794:B1 *719:74 8.16356e-05
21 *1794:B1 *721:36 0.000134687
22 *407:12 *1714:B 1.13812e-05
23 *407:12 *408:10 0
24 *407:12 *421:10 0
25 *407:12 *694:16 0
26 *407:12 *706:12 0
27 *407:12 *722:10 0.000156141
28 *407:12 *722:12 0.000128654
29 *407:25 *537:22 9.21347e-06
30 *407:25 *595:10 1.01436e-05
31 *407:25 *694:16 0
32 *181:10 *407:12 0.00011619
33 *189:10 *407:12 0
34 *296:10 *407:12 1.83564e-05
35 *296:10 *407:25 4.49946e-05
*RES
1 *1715:X *407:12 47.3629 
2 *407:12 *1716:A 41.8529 
3 *407:12 *407:25 1.90571 
4 *407:25 *1718:B1 38.6214 
5 *407:25 *1794:B1 49.4136 
*END

*D_NET *408 0.000811664
*CONN
*I *1740:B2 I *D sky130_fd_sc_hd__o22a_2
*I *1716:Y O *D sky130_fd_sc_hd__inv_2
*CAP
1 *1740:B2 0
2 *1716:Y 0.000291561
3 *408:10 0.000291561
4 *408:10 *1795:B1_N 0.000108703
5 *408:10 *421:10 6.56999e-05
6 *408:10 *537:28 5.41385e-05
7 *407:12 *408:10 0
*RES
1 *1716:Y *408:10 43.8207 
2 *408:10 *1740:B2 38 
*END

*D_NET *409 0.000361619
*CONN
*I *1718:A2 I *D sky130_fd_sc_hd__a21o_2
*I *1717:Y O *D sky130_fd_sc_hd__nand3_2
*CAP
1 *1718:A2 0
2 *1717:Y 9.64328e-05
3 *409:8 9.64328e-05
4 *409:8 *595:10 0.000168754
5 *409:8 *694:16 0
*RES
1 *1717:Y *409:8 40.2579 
2 *409:8 *1718:A2 38 
*END

*D_NET *410 0.00175472
*CONN
*I *1720:A2 I *D sky130_fd_sc_hd__a21boi_2
*I *1790:A I *D sky130_fd_sc_hd__or3b_2
*I *1719:X O *D sky130_fd_sc_hd__and3_2
*CAP
1 *1720:A2 0.000100557
2 *1790:A 0.000286405
3 *1719:X 0.000241794
4 *410:8 0.000628755
5 *1720:A2 *1610:A 2.19403e-05
6 *1720:A2 *2100:CLK 5.58003e-05
7 *1790:A *1610:A 4.70153e-05
8 *1790:A *415:23 7.61229e-06
9 *1790:A *544:40 2.18665e-05
10 *410:8 *544:34 4.31366e-05
11 *410:8 *544:36 6.16537e-05
12 *410:8 *544:40 3.50862e-06
13 *140:10 *1790:A 9.08408e-05
14 *326:6 *1720:A2 0.00014384
*RES
1 *1719:X *410:8 42.3707 
2 *410:8 *1790:A 42.4121 
3 *410:8 *1720:A2 40.5479 
*END

*D_NET *411 0.00320478
*CONN
*I *1833:A I *D sky130_fd_sc_hd__nor2_2
*I *1725:B I *D sky130_fd_sc_hd__nor3_2
*I *1727:A1 I *D sky130_fd_sc_hd__o21a_2
*I *1723:Y O *D sky130_fd_sc_hd__a21oi_2
*CAP
1 *1833:A 0
2 *1725:B 0
3 *1727:A1 3.87226e-05
4 *1723:Y 0.000637765
5 *411:31 0.000191825
6 *411:16 0.000613346
7 *411:8 0.00102056
8 *1727:A1 *2099:CLK 0.000100477
9 *1727:A1 *680:10 2.95526e-05
10 *411:8 *1723:A1 1.32314e-05
11 *411:8 *1723:A2 2.30292e-05
12 *411:8 *1751:B 1.22822e-05
13 *411:16 *1726:B 1.00286e-05
14 *411:16 *471:20 0
15 *411:16 *680:10 3.6608e-05
16 *411:16 *680:14 5.34487e-05
17 *411:31 *2099:CLK 9.79925e-05
18 *411:31 *2157:A 0.00011301
19 *411:31 *449:31 1.74126e-05
20 *214:8 *411:16 0.000195488
*RES
1 *1723:Y *411:8 32.0936 
2 *411:8 *411:16 38.3064 
3 *411:16 *1727:A1 24.0979 
4 *411:16 *411:31 34.4121 
5 *411:31 *1725:B 23 
6 *411:8 *1833:A 23 
*END

*D_NET *412 0.00318836
*CONN
*I *1832:A I *D sky130_fd_sc_hd__nor2_2
*I *1725:C I *D sky130_fd_sc_hd__nor3_2
*I *1727:A2 I *D sky130_fd_sc_hd__o21a_2
*I *1724:Y O *D sky130_fd_sc_hd__a21oi_2
*CAP
1 *1832:A 2.18824e-05
2 *1725:C 0.000129379
3 *1727:A2 0.000113434
4 *1724:Y 0.000252222
5 *412:14 0.000603777
6 *412:8 0.000635069
7 *1725:C *2157:A 0.000153164
8 *1725:C *680:52 6.45006e-05
9 *1727:A2 *2099:CLK 0.00035847
10 *1727:A2 *680:52 0.000271584
11 *412:8 *557:32 1.35999e-05
12 *412:8 *731:68 0.000110402
13 *412:14 *1832:B 0.000145171
14 *412:14 *2157:A 5.91105e-05
15 *412:14 *471:20 0.000138859
16 *412:14 *731:12 2.33679e-05
17 *412:14 *731:68 3.2277e-05
18 *320:8 *1725:C 5.71002e-06
19 *320:8 *412:14 5.63804e-05
*RES
1 *1724:Y *412:8 27.93 
2 *412:8 *412:14 22.395 
3 *412:14 *1727:A2 41.9564 
4 *412:14 *1725:C 40.8793 
5 *412:8 *1832:A 23.4971 
*END

*D_NET *413 0.0119799
*CONN
*I *1789:B1_N I *D sky130_fd_sc_hd__o21bai_2
*I *1781:A_N I *D sky130_fd_sc_hd__and2b_2
*I *1780:B I *D sky130_fd_sc_hd__or2_2
*I *1726:B I *D sky130_fd_sc_hd__and2_2
*I *1725:Y O *D sky130_fd_sc_hd__nor3_2
*CAP
1 *1789:B1_N 2.31178e-05
2 *1781:A_N 0
3 *1780:B 4.15327e-05
4 *1726:B 0.000525047
5 *1725:Y 0.000126159
6 *413:66 0.00167225
7 *413:41 0.00242534
8 *413:31 0.00151557
9 *413:8 0.0014321
10 *1726:B *1610:A 1.18379e-05
11 *1726:B *2099:CLK 4.53082e-05
12 *1726:B *414:10 5.56356e-05
13 *1726:B *449:31 8.52094e-06
14 *1726:B *544:40 0.000120358
15 *1726:B *544:60 1.34995e-05
16 *1726:B *731:12 1.51481e-05
17 *1726:B *731:41 0.000493335
18 *1780:B *1780:A 2.93747e-05
19 *1789:B1_N *454:14 0
20 *413:8 *449:31 3.46216e-05
21 *413:31 *1712:A1 0.000200269
22 *413:31 *1712:A3 8.15864e-05
23 *413:31 *1719:B 7.75329e-06
24 *413:31 *449:31 4.16878e-06
25 *413:31 *544:34 8.54034e-05
26 *413:31 *544:36 9.60272e-05
27 *413:31 *544:40 8.15422e-05
28 *413:31 *579:18 0
29 *413:31 *732:22 0.000139647
30 *413:41 *2242:A 0.000163791
31 *413:41 *454:8 1.83564e-05
32 *413:41 *454:14 0.000318251
33 *413:41 *454:20 0
34 *413:41 *675:24 0
35 *413:41 *675:33 0
36 *413:41 *705:10 0.000135557
37 *413:41 *733:16 0.000144158
38 *413:66 *2242:A 2.12147e-05
39 *413:66 *446:12 0
40 *413:66 *446:22 0
41 *413:66 *449:48 0.000151665
42 *413:66 *681:36 0.000211872
43 *413:66 *681:50 1.1377e-05
44 *413:66 *736:12 5.3304e-05
45 *1760:B1 *413:66 0
46 *133:16 *413:31 0.000342125
47 *141:10 *413:41 2.93431e-05
48 *144:10 *1780:B 5.50049e-05
49 *190:10 *413:41 1.22803e-05
50 *295:10 *413:31 0.000193072
51 *325:10 *413:41 0
52 *325:10 *413:66 0
53 *326:19 *1726:B 3.13857e-05
54 *326:19 *413:31 6.45006e-05
55 *404:16 *413:31 0.000175403
56 *404:16 *413:41 0.000473211
57 *405:8 *413:31 3.66555e-05
58 *405:8 *413:41 4.21979e-05
59 *411:16 *1726:B 1.00286e-05
*RES
1 *1725:Y *413:8 39.5743 
2 *413:8 *1726:B 49.6829 
3 *413:8 *413:31 35.3207 
4 *413:31 *413:41 33.0421 
5 *413:41 *1780:B 39.1186 
6 *413:41 *413:66 37.6954 
7 *413:66 *1781:A_N 23 
8 *413:31 *1789:B1_N 23.4971 
*END

*D_NET *414 0.00150245
*CONN
*I *1730:A I *D sky130_fd_sc_hd__or2_2
*I *1733:A I *D sky130_fd_sc_hd__or2_2
*I *1726:X O *D sky130_fd_sc_hd__and2_2
*CAP
1 *1730:A 0.000104809
2 *1733:A 0
3 *1726:X 0.000233515
4 *414:12 0.000104809
5 *414:10 0.000233515
6 *1730:A *417:16 0.000126936
7 *414:10 *417:16 0.000372992
8 *1726:B *414:10 5.56356e-05
9 *185:10 *1730:A 3.22051e-05
10 *291:10 *1730:A 3.22051e-05
11 *291:10 *414:10 8.16757e-06
12 *292:10 *1730:A 5.87871e-05
13 *292:10 *414:10 0.000138872
*RES
1 *1726:X *414:10 43.6964 
2 *414:10 *414:12 15 
3 *414:12 *1733:A 23 
4 *414:12 *1730:A 26.48 
*END

*D_NET *415 0.00324631
*CONN
*I *1729:A1 I *D sky130_fd_sc_hd__o21a_2
*I *1732:A1 I *D sky130_fd_sc_hd__o21a_2
*I *1790:B I *D sky130_fd_sc_hd__or3b_2
*I *1727:X O *D sky130_fd_sc_hd__o21a_2
*CAP
1 *1729:A1 0
2 *1732:A1 0
3 *1790:B 0
4 *1727:X 0.000118835
5 *415:33 0.000635101
6 *415:23 0.00101706
7 *415:12 0.000381954
8 *415:10 0.000118835
9 *415:10 *544:42 5.5792e-05
10 *415:23 *417:8 0.000187258
11 *415:33 *1729:A2 2.93431e-05
12 *415:33 *1729:B1 5.3304e-05
13 *415:33 *1732:B1 0
14 *415:33 *417:8 1.87385e-05
15 *415:33 *417:16 0
16 *415:33 *478:10 0.000160473
17 *415:33 *724:16 3.67392e-05
18 *1790:A *415:23 7.61229e-06
19 *140:10 *415:10 8.57577e-05
20 *329:12 *415:33 4.24694e-06
21 *401:12 *415:33 9.78156e-05
22 *403:12 *415:33 0.000237447
*RES
1 *1727:X *415:10 39.8229 
2 *415:10 *415:12 15 
3 *415:12 *1790:B 23 
4 *415:12 *415:23 7.685 
5 *415:23 *415:33 41.6207 
6 *415:33 *1732:A1 23 
7 *415:23 *1729:A1 23 
*END

*D_NET *416 0.00070824
*CONN
*I *1729:A2 I *D sky130_fd_sc_hd__o21a_2
*I *1728:Y O *D sky130_fd_sc_hd__a21oi_2
*CAP
1 *1729:A2 1.91535e-05
2 *1728:Y 0.000136936
3 *416:10 0.00015609
4 *1729:A2 *417:8 5.53064e-05
5 *416:10 *417:16 0
6 *416:10 *544:60 5.56356e-05
7 *416:10 *731:41 9.65021e-05
8 *1728:B1 *416:10 2.46906e-05
9 *403:12 *416:10 0.000134583
10 *415:33 *1729:A2 2.93431e-05
*RES
1 *1728:Y *416:10 41.0036 
2 *416:10 *1729:A2 38.6214 
*END

*D_NET *417 0.00303086
*CONN
*I *1730:B I *D sky130_fd_sc_hd__or2_2
*I *1729:X O *D sky130_fd_sc_hd__o21a_2
*CAP
1 *1730:B 0
2 *1729:X 0.000316168
3 *417:16 0.000728009
4 *417:8 0.00104418
5 *417:8 *1729:B1 4.22172e-05
6 *417:8 *724:12 7.61229e-06
7 *417:16 *447:85 3.27399e-05
8 *417:16 *731:41 8.81402e-05
9 *1729:A2 *417:8 5.53064e-05
10 *1730:A *417:16 0.000126936
11 *329:44 *417:16 1.05658e-05
12 *414:10 *417:16 0.000372992
13 *415:23 *417:8 0.000187258
14 *415:33 *417:8 1.87385e-05
15 *415:33 *417:16 0
16 *416:10 *417:16 0
*RES
1 *1729:X *417:8 42.4329 
2 *417:8 *417:16 27.0971 
3 *417:16 *1730:B 23 
*END

*D_NET *418 0.00174136
*CONN
*I *1732:A2 I *D sky130_fd_sc_hd__o21a_2
*I *1731:Y O *D sky130_fd_sc_hd__a21oi_2
*CAP
1 *1732:A2 0
2 *1731:Y 0.000179954
3 *418:22 0.000128835
4 *418:10 0.000308789
5 *418:10 *1731:A1 4.03402e-06
6 *418:10 *1732:B1 0.00029147
7 *418:10 *723:8 5.3304e-05
8 *418:10 *724:8 0.000191848
9 *418:22 *1732:B1 0.000135218
10 *418:22 *419:8 5.50106e-05
11 *418:22 *478:10 5.94818e-05
12 *418:22 *478:18 9.41704e-05
13 *418:22 *627:10 5.67058e-05
14 *1731:A2 *418:10 3.66052e-05
15 *291:18 *418:10 4.92798e-05
16 *291:18 *418:22 9.66585e-05
*RES
1 *1731:Y *418:10 43.1164 
2 *418:10 *418:22 48.625 
3 *418:22 *1732:A2 23 
*END

*D_NET *419 0.00131721
*CONN
*I *1733:B I *D sky130_fd_sc_hd__or2_2
*I *1732:X O *D sky130_fd_sc_hd__o21a_2
*CAP
1 *1733:B 0
2 *1732:X 0.000515476
3 *419:8 0.000515476
4 *419:8 *1846:A1 4.77213e-05
5 *419:8 *478:10 9.65021e-05
6 *419:8 *627:10 8.70252e-05
7 *418:22 *419:8 5.50106e-05
*RES
1 *1732:X *419:8 30.54 
2 *419:8 *1733:B 23 
*END

*D_NET *420 0.000485409
*CONN
*I *1735:A2 I *D sky130_fd_sc_hd__o21a_2
*I *1734:Y O *D sky130_fd_sc_hd__nand2_2
*CAP
1 *1735:A2 0
2 *1734:Y 0.000110625
3 *420:10 0.000110625
4 *420:10 *1612:A 1.35999e-05
5 *420:10 *1734:A 0.000167522
6 *420:10 *1736:A2 7.16552e-05
7 *420:10 *552:62 1.13812e-05
*RES
1 *1734:Y *420:10 40.8793 
2 *420:10 *1735:A2 38 
*END

*D_NET *421 0.00511029
*CONN
*I *1792:B I *D sky130_fd_sc_hd__and2_2
*I *1738:B I *D sky130_fd_sc_hd__nor2_2
*I *1795:B1_N I *D sky130_fd_sc_hd__a21bo_2
*I *1737:Y O *D sky130_fd_sc_hd__nand2_2
*CAP
1 *1792:B 0
2 *1738:B 2.18824e-05
3 *1795:B1_N 0.000344577
4 *1737:Y 0.000199796
5 *421:42 0.000596864
6 *421:25 0.00094031
7 *421:10 0.000865937
8 *1795:B1_N *2162:A 0.000148142
9 *1795:B1_N *692:31 5.09441e-05
10 *421:10 *537:28 9.84794e-05
11 *421:10 *692:42 0
12 *421:25 *701:16 0.000392217
13 *421:25 *722:10 1.84917e-05
14 *421:42 *1742:A_N 0.00021673
15 *421:42 *694:8 9.84851e-05
16 *421:42 *694:16 0
17 *421:42 *701:16 0.000171826
18 *421:42 *706:34 0.000488373
19 mem_addr[6] *421:42 0
20 *25:8 *421:42 9.84851e-05
21 *138:10 *421:42 0.000170909
22 *219:8 *421:42 0
23 *348:12 *421:42 1.34354e-05
24 *407:12 *421:10 0
25 *408:10 *1795:B1_N 0.000108703
26 *408:10 *421:10 6.56999e-05
*RES
1 *1737:Y *421:10 42.06 
2 *421:10 *1795:B1_N 45.7109 
3 *421:10 *421:25 22.7679 
4 *421:25 *1738:B 23.4971 
5 *421:25 *421:42 45.6393 
6 *421:42 *1792:B 23 
*END

*D_NET *422 0.00142998
*CONN
*I *1740:A2 I *D sky130_fd_sc_hd__o22a_2
*I *1738:Y O *D sky130_fd_sc_hd__nor2_2
*CAP
1 *1740:A2 0.000337855
2 *1738:Y 0.000133667
3 *422:8 0.000471522
4 *1740:A2 *1740:A1 2.50118e-05
5 *1740:A2 *2216:A 7.64944e-05
6 *1740:A2 *692:10 2.20564e-05
7 *422:8 *706:12 0.000116118
8 *422:8 *722:10 4.21913e-05
9 *422:8 *722:12 1.65403e-05
10 *181:10 *1740:A2 0.000188526
*RES
1 *1738:Y *422:8 41.3143 
2 *422:8 *1740:A2 42.9093 
*END

*D_NET *423 0.00445286
*CONN
*I *1797:C1 I *D sky130_fd_sc_hd__a211o_2
*I *1740:B1 I *D sky130_fd_sc_hd__o22a_2
*I *1739:Y O *D sky130_fd_sc_hd__nor2_2
*CAP
1 *1797:C1 0
2 *1740:B1 0
3 *1739:Y 0.000409365
4 *423:26 0.000648326
5 *423:22 0.000704259
6 *423:8 0.000353431
7 *423:8 *1938:A 6.4554e-05
8 *423:22 *1938:A 0.000182222
9 *423:22 *690:8 7.61229e-06
10 *423:26 *1765:B 0
11 *423:26 *430:12 0
12 *423:26 *432:10 6.85908e-05
13 *423:26 *552:10 0.000324751
14 *423:26 *690:18 0.000155657
15 *423:26 *716:20 3.3123e-05
16 *1739:B *423:8 5.82853e-05
17 *1739:B *423:22 0.000141355
18 *1739:B *423:26 0.000163256
19 *13:10 *423:26 0.000230414
20 *181:10 *423:8 0.000233211
21 *221:10 *423:26 0.00025214
22 *288:10 *423:8 5.33272e-05
23 *327:10 *423:26 0.000368982
*RES
1 *1739:Y *423:8 31.265 
2 *423:8 *1740:B1 23 
3 *1739:Y *423:22 40.0507 
4 *423:22 *423:26 34.1607 
5 *423:26 *1797:C1 23 
*END

*D_NET *424 0.00105433
*CONN
*I *1743:A2 I *D sky130_fd_sc_hd__a31o_2
*I *1741:X O *D sky130_fd_sc_hd__a22o_2
*CAP
1 *1743:A2 0
2 *1741:X 0.000324409
3 *424:10 0.000324409
4 *424:10 *1743:A3 8.85189e-05
5 *424:10 *716:53 9.61128e-05
6 *424:10 *729:36 0.000220875
*RES
1 *1741:X *424:10 43.5462 
2 *424:10 *1743:A2 38 
*END

*D_NET *425 0.00204987
*CONN
*I *1743:A3 I *D sky130_fd_sc_hd__a31o_2
*I *1742:Y O *D sky130_fd_sc_hd__nand3b_2
*CAP
1 *1743:A3 6.91095e-05
2 *1742:Y 0.000701772
3 *425:14 0.000770882
4 *1743:A3 *552:62 7.37814e-06
5 *1743:A3 *716:53 0.000138708
6 *1743:A3 *729:36 0
7 *425:14 *1742:B 0
8 *425:14 *1742:C 2.45549e-06
9 *425:14 *552:62 3.16195e-05
10 *425:14 *616:10 8.62783e-05
11 *425:14 *721:10 0.000153145
12 *424:10 *1743:A3 8.85189e-05
*RES
1 *1742:Y *425:14 48.8439 
2 *425:14 *1743:A3 40.0818 
*END

*D_NET *426 0.00905701
*CONN
*I *1766:A1 I *D sky130_fd_sc_hd__a21boi_2
*I *1770:A1_N I *D sky130_fd_sc_hd__o2bb2a_2
*I *1756:A I *D sky130_fd_sc_hd__nor2_2
*I *1749:B1 I *D sky130_fd_sc_hd__a21oi_2
*I *1793:B I *D sky130_fd_sc_hd__nand2_2
*I *1797:A2 I *D sky130_fd_sc_hd__a211o_2
*I *1743:X O *D sky130_fd_sc_hd__a31o_2
*CAP
1 *1766:A1 0
2 *1770:A1_N 0.000171204
3 *1756:A 0.000273334
4 *1749:B1 0.000105019
5 *1793:B 0.000478443
6 *1797:A2 7.30457e-05
7 *1743:X 0.000278346
8 *426:92 0.000281263
9 *426:67 0.000679762
10 *426:54 0.000500629
11 *426:43 0.000657445
12 *426:22 0.00123617
13 *1749:B1 *428:10 5.18956e-05
14 *1756:A *690:54 0.000493756
15 *1756:A *714:36 0
16 *1770:A1_N *1755:A1 2.18409e-05
17 *1770:A1_N *1761:A 0.000140297
18 *1770:A1_N *1770:B1 0.000231039
19 *1770:A1_N *1770:B2 3.98254e-05
20 *1770:A1_N *437:6 0.000201637
21 *1770:A1_N *444:16 0.000145521
22 *1793:B *1791:B1 5.28582e-05
23 *1793:B *1793:A 4.00259e-06
24 *1793:B *455:12 0
25 *1793:B *552:62 0.000247082
26 *1793:B *617:10 5.67058e-05
27 *1793:B *692:59 4.83778e-05
28 *1793:B *692:78 2.22079e-05
29 *1797:A2 *1796:A 0.000269775
30 *1797:A2 *556:20 0.000184527
31 *426:22 *1796:A 9.41704e-05
32 *426:22 *552:62 0.000327903
33 *426:22 *692:78 5.93981e-05
34 *426:43 *1749:A2 0.000273267
35 *426:43 *1765:A 4.65192e-05
36 *426:43 *428:10 8.48502e-06
37 *426:43 *721:10 5.50049e-05
38 *426:67 *427:30 3.47781e-05
39 *426:67 *429:10 0.000114092
40 *426:67 *436:20 1.35751e-05
41 *426:67 *690:54 0.000394863
42 *426:92 *1755:B1 5.56356e-05
43 *426:92 *1766:A2 5.3304e-05
44 *426:92 *444:16 7.14493e-05
45 *426:92 *556:41 2.31591e-05
46 *426:92 *690:54 0.00021036
47 *2215:A *1793:B 2.18409e-05
48 *135:10 *426:22 7.03663e-05
49 *221:10 *426:43 0.000182832
*RES
1 *1743:X *1797:A2 49.0036 
2 *1743:X *426:22 43.4686 
3 *426:22 *1793:B 47.6114 
4 *426:22 *426:43 24.6736 
5 *426:43 *1749:B1 25.0714 
6 *426:43 *426:54 15 
7 *426:54 *1756:A 44.4836 
8 *426:54 *426:67 20.4271 
9 *426:67 *1770:A1_N 29.3904 
10 *426:67 *426:92 35.6343 
11 *426:92 *1766:A1 23 
*END

*D_NET *427 0.00362475
*CONN
*I *1755:A1 I *D sky130_fd_sc_hd__a31o_2
*I *1770:B1 I *D sky130_fd_sc_hd__o2bb2a_2
*I *1744:X O *D sky130_fd_sc_hd__or2_2
*CAP
1 *1755:A1 8.04602e-05
2 *1770:B1 8.01842e-05
3 *1744:X 0.000423561
4 *427:32 0.000160644
5 *427:30 0.000573159
6 *427:18 0.00099672
7 *1770:B1 *437:6 0.000100069
8 *427:18 *2150:A 0.000187434
9 *427:18 *446:8 1.26869e-05
10 *427:18 *550:10 2.99261e-05
11 *427:18 *694:122 0.000230718
12 *427:30 *444:16 0
13 *427:30 *690:54 5.07277e-05
14 *427:30 *694:92 0.000288689
15 *427:30 *713:10 0
16 *1770:A1_N *1755:A1 2.18409e-05
17 *1770:A1_N *1770:B1 0.000231039
18 *284:10 *427:30 0.000122115
19 *426:67 *427:30 3.47781e-05
*RES
1 *1744:X *427:18 45.8818 
2 *427:18 *427:30 40.3675 
3 *427:30 *427:32 15 
4 *427:32 *1770:B1 25.5271 
5 *427:32 *1755:A1 24.6157 
*END

*D_NET *428 0.00103193
*CONN
*I *1765:A I *D sky130_fd_sc_hd__nand2_2
*I *1749:A1 I *D sky130_fd_sc_hd__a21oi_2
*I *1745:X O *D sky130_fd_sc_hd__or3b_2
*CAP
1 *1765:A 4.69039e-05
2 *1749:A1 0
3 *1745:X 0.000311479
4 *428:10 0.000358382
5 *1765:A *1749:A2 0.000102389
6 *1765:A *432:10 9.3443e-05
7 *428:10 *432:10 1.24376e-05
8 *1749:B1 *428:10 5.18956e-05
9 *426:43 *1765:A 4.65192e-05
10 *426:43 *428:10 8.48502e-06
*RES
1 *1745:X *428:10 28.4271 
2 *428:10 *1749:A1 23 
3 *428:10 *1765:A 25.0507 
*END

*D_NET *429 0.000551748
*CONN
*I *1755:A2 I *D sky130_fd_sc_hd__a31o_2
*I *1746:Y O *D sky130_fd_sc_hd__nand2b_2
*CAP
1 *1755:A2 0
2 *1746:Y 0.000109008
3 *429:10 0.000109008
4 *429:10 *1746:B 3.22051e-05
5 *429:10 *436:20 0.000187435
6 *426:67 *429:10 0.000114092
*RES
1 *1746:Y *429:10 41.1279 
2 *429:10 *1755:A2 38 
*END

*D_NET *430 0.00333117
*CONN
*I *1748:B I *D sky130_fd_sc_hd__or3b_2
*I *1765:B I *D sky130_fd_sc_hd__nand2_2
*I *1756:B I *D sky130_fd_sc_hd__nor2_2
*I *1767:A2 I *D sky130_fd_sc_hd__o21a_2
*I *1747:Y O *D sky130_fd_sc_hd__nand3b_2
*CAP
1 *1748:B 0
2 *1765:B 0.000208145
3 *1756:B 0.00018319
4 *1767:A2 0.000322061
5 *1747:Y 0.00026622
6 *430:12 0.000649631
7 *430:10 0.000352525
8 *430:8 0.00026622
9 *1756:B *690:18 0.000273164
10 *1756:B *690:20 0.000142577
11 *1765:B *431:8 3.62219e-05
12 *1765:B *432:10 6.48142e-05
13 *1765:B *552:10 7.76364e-06
14 *1767:A2 *1767:B1 0.000100477
15 *1767:A2 *690:18 0.00037665
16 *1767:A2 *701:24 4.22275e-05
17 *430:8 *1748:A 2.45549e-06
18 *283:10 *1767:A2 3.68285e-05
19 *423:26 *1765:B 0
20 *423:26 *430:12 0
*RES
1 *1747:Y *430:8 26.5007 
2 *430:8 *430:10 15 
3 *430:10 *430:12 2.61 
4 *430:12 *1767:A2 45.4779 
5 *430:12 *1756:B 42.93 
6 *430:10 *1765:B 41.6664 
7 *430:8 *1748:B 23 
*END

*D_NET *431 0.00100205
*CONN
*I *1749:A2 I *D sky130_fd_sc_hd__a21oi_2
*I *1748:X O *D sky130_fd_sc_hd__or3b_2
*CAP
1 *1749:A2 8.4429e-05
2 *1748:X 6.04381e-05
3 *431:8 0.000144867
4 *1749:A2 *432:10 4.03836e-05
5 *431:8 *432:10 9.03784e-05
6 *431:8 *552:10 0.000169674
7 *1765:A *1749:A2 0.000102389
8 *1765:B *431:8 3.62219e-05
9 *426:43 *1749:A2 0.000273267
*RES
1 *1748:X *431:8 40.2579 
2 *431:8 *1749:A2 41.0036 
*END

*D_NET *432 0.00220855
*CONN
*I *1755:B1 I *D sky130_fd_sc_hd__a31o_2
*I *1749:Y O *D sky130_fd_sc_hd__a21oi_2
*CAP
1 *1755:B1 0.000136823
2 *1749:Y 0.00044328
3 *432:10 0.000580103
4 *1755:B1 *1797:B1 9.64943e-05
5 *1755:B1 *444:16 4.288e-05
6 *1755:B1 *716:20 6.17437e-06
7 *432:10 *444:8 0.000354769
8 *432:10 *552:10 5.97612e-05
9 *432:10 *716:20 6.25829e-05
10 *1749:A2 *432:10 4.03836e-05
11 *1765:A *432:10 9.3443e-05
12 *1765:B *432:10 6.48142e-05
13 *423:26 *432:10 6.85908e-05
14 *426:92 *1755:B1 5.56356e-05
15 *428:10 *432:10 1.24376e-05
16 *431:8 *432:10 9.03784e-05
*RES
1 *1749:Y *432:10 47.9636 
2 *432:10 *1755:B1 41.0036 
*END

*D_NET *433 0.0040183
*CONN
*I *1752:A1 I *D sky130_fd_sc_hd__o21a_2
*I *1754:C1 I *D sky130_fd_sc_hd__a221o_2
*I *1768:A1 I *D sky130_fd_sc_hd__o21a_2
*I *1750:X O *D sky130_fd_sc_hd__or3b_2
*CAP
1 *1752:A1 0
2 *1754:C1 0
3 *1768:A1 0.000400485
4 *1750:X 0.000253301
5 *433:20 0.00077429
6 *433:12 0.000373805
7 *433:10 0.000253301
8 *1768:A1 *1723:A1 7.42621e-05
9 *1768:A1 *1751:B 0
10 *1768:A1 *1768:A2 0.000304431
11 *1768:A1 *1768:B1 0.000187129
12 *1768:A1 *435:12 3.50862e-06
13 *1768:A1 *550:65 8.98641e-05
14 *1768:A1 *554:41 0.000184396
15 *433:10 *1750:B 0
16 *433:10 *1750:C_N 3.3746e-05
17 *433:10 *434:25 1.13812e-05
18 *433:10 *436:10 0.000295545
19 *433:10 *649:8 1.01436e-05
20 *433:10 *690:30 9.58714e-05
21 *433:20 *435:12 4.26092e-05
22 *433:20 *550:65 0.000303431
23 *433:20 *596:6 0.000145163
24 *433:20 *701:24 4.44894e-05
25 *281:10 *1768:A1 2.4754e-05
26 *282:8 *433:20 0.000112396
*RES
1 *1750:X *433:10 43.1164 
2 *433:10 *433:12 15 
3 *433:12 *433:20 23.9279 
4 *433:20 *1768:A1 48.9371 
5 *433:20 *1754:C1 38 
6 *433:12 *1752:A1 23 
*END

*D_NET *434 0.00181139
*CONN
*I *1752:A2 I *D sky130_fd_sc_hd__o21a_2
*I *1754:A2 I *D sky130_fd_sc_hd__a221o_2
*I *1751:Y O *D sky130_fd_sc_hd__nand2b_2
*CAP
1 *1752:A2 0
2 *1754:A2 0
3 *1751:Y 0.000215792
4 *434:25 0.000288606
5 *434:12 0.000318185
6 *434:8 0.000245372
7 *434:8 *730:14 0.000102356
8 *434:12 *557:32 0.000167514
9 *434:12 *689:17 0.00016693
10 *434:25 *1768:A2 4.41821e-06
11 *434:25 *435:12 7.30768e-05
12 *434:25 *436:10 0.000161967
13 *434:25 *557:32 2.23427e-05
14 *434:25 *689:17 3.34493e-05
15 *281:10 *434:8 0
16 *433:10 *434:25 1.13812e-05
*RES
1 *1751:Y *434:8 42.7229 
2 *434:8 *434:12 16.8125 
3 *434:12 *1754:A2 23 
4 *434:12 *434:25 36.1625 
5 *434:25 *1752:A2 23 
*END

*D_NET *435 0.0024923
*CONN
*I *1754:B1 I *D sky130_fd_sc_hd__a221o_2
*I *1768:A2 I *D sky130_fd_sc_hd__o21a_2
*I *1753:Y O *D sky130_fd_sc_hd__nand2b_2
*CAP
1 *1754:B1 0
2 *1768:A2 0.000266523
3 *1753:Y 0.000504673
4 *435:12 0.000771196
5 *1768:A2 *730:14 0
6 *435:12 *550:36 0.000161804
7 *435:12 *550:49 1.61385e-05
8 *435:12 *731:122 0.000147656
9 *1768:A1 *1768:A2 0.000304431
10 *1768:A1 *435:12 3.50862e-06
11 *281:10 *1768:A2 0.000196266
12 *433:20 *435:12 4.26092e-05
13 *434:25 *1768:A2 4.41821e-06
14 *434:25 *435:12 7.30768e-05
*RES
1 *1753:Y *435:12 48.0464 
2 *435:12 *1768:A2 44.6493 
3 *435:12 *1754:B1 38 
*END

*D_NET *436 0.00706197
*CONN
*I *1762:A I *D sky130_fd_sc_hd__nand2_2
*I *1769:A1 I *D sky130_fd_sc_hd__a21o_2
*I *1755:A3 I *D sky130_fd_sc_hd__a31o_2
*I *1754:X O *D sky130_fd_sc_hd__a221o_2
*CAP
1 *1762:A 4.33008e-05
2 *1769:A1 0.000135847
3 *1755:A3 0
4 *1754:X 0.000440876
5 *436:33 0.000807052
6 *436:20 0.000486759
7 *436:12 0.00138524
8 *436:10 0.000711452
9 *1762:A *550:10 1.65142e-05
10 *1769:A1 *550:10 5.28004e-05
11 *436:10 *649:8 5.22905e-05
12 *436:10 *730:27 0.000137754
13 *436:10 *731:122 0
14 *436:12 *437:23 0.000276775
15 *436:12 *438:10 0.000352538
16 *436:12 *649:8 0.000396462
17 *436:12 *712:25 7.276e-05
18 *436:12 *712:36 7.90568e-05
19 *436:12 *713:12 0
20 *436:12 *731:122 0
21 *436:20 *1746:A_N 2.93431e-05
22 *436:20 *1746:B 5.50123e-05
23 *436:20 *2248:A 7.44354e-05
24 *436:20 *712:42 5.12254e-05
25 *436:33 *1744:B 0.000100283
26 *436:33 *1762:B 5.41288e-05
27 *436:33 *437:23 0.000102638
28 *436:33 *446:8 0.00030233
29 *436:33 *550:10 0.000100371
30 *436:33 *712:42 3.28979e-05
31 *436:33 *713:10 0
32 *436:33 *713:12 0
33 *436:33 *713:86 5.3304e-05
34 *180:10 *436:10 0
35 *287:8 *436:12 0
36 *426:67 *436:20 1.35751e-05
37 *429:10 *436:20 0.000187435
38 *433:10 *436:10 0.000295545
39 *434:25 *436:10 0.000161967
*RES
1 *1754:X *436:10 48.8025 
2 *436:10 *436:12 9.82893 
3 *436:12 *436:20 37.4157 
4 *436:20 *1755:A3 38 
5 *436:12 *436:33 26.9521 
6 *436:33 *1769:A1 24.8436 
7 *436:33 *1762:A 24.0254 
*END

*D_NET *437 0.00326461
*CONN
*I *1757:S I *D sky130_fd_sc_hd__mux2_1
*I *1764:B I *D sky130_fd_sc_hd__and2_2
*I *1763:A2 I *D sky130_fd_sc_hd__a22o_2
*I *1755:X O *D sky130_fd_sc_hd__a31o_2
*CAP
1 *1757:S 0
2 *1764:B 0.000261401
3 *1763:A2 0.000247864
4 *1755:X 0.000202761
5 *437:23 0.000443276
6 *437:6 0.000632501
7 *1763:A2 *1761:A 5.12254e-05
8 *1763:A2 *1763:A1 0.000134641
9 *1763:A2 *441:17 0
10 *1763:A2 *442:10 5.50106e-05
11 *1763:A2 *713:60 1.03836e-05
12 *1763:A2 *713:64 4.75206e-05
13 *1764:B *1757:A0 9.84794e-05
14 *437:6 *1761:A 9.11078e-05
15 *437:6 *1770:A2_N 0.000224654
16 *437:23 *653:10 0
17 *437:23 *712:42 8.26672e-05
18 *437:23 *731:122 0
19 *1770:A1_N *437:6 0.000201637
20 *1770:B1 *437:6 0.000100069
21 *436:12 *437:23 0.000276775
22 *436:33 *437:23 0.000102638
*RES
1 *1755:X *437:6 28.3857 
2 *437:6 *1763:A2 28.2821 
3 *437:6 *437:23 35.075 
4 *437:23 *1764:B 27.93 
5 *437:23 *1757:S 23 
*END

*D_NET *438 0.00178142
*CONN
*I *1757:A0 I *D sky130_fd_sc_hd__mux2_1
*I *1756:Y O *D sky130_fd_sc_hd__nor2_2
*CAP
1 *1757:A0 3.38089e-05
2 *1756:Y 0.000568333
3 *438:10 0.000602142
4 *1757:A0 *1757:A1 5.50049e-05
5 *438:10 *690:20 3.39928e-05
6 *438:10 *714:8 3.71228e-05
7 *438:10 *731:122 0
8 *1764:B *1757:A0 9.84794e-05
9 *287:8 *438:10 0
10 *436:12 *438:10 0.000352538
*RES
1 *1756:Y *438:10 48.585 
2 *438:10 *1757:A0 39.0979 
*END

*D_NET *439 0.000709151
*CONN
*I *1760:A2 I *D sky130_fd_sc_hd__a31oi_2
*I *1758:X O *D sky130_fd_sc_hd__a22o_2
*CAP
1 *1760:A2 0
2 *1758:X 0.000244674
3 *439:10 0.000244674
4 *439:10 *1758:A1 1.14876e-05
5 *439:10 *1758:A2 3.7122e-06
6 *439:10 *440:10 7.03421e-05
7 *439:10 *544:34 7.03766e-05
8 *439:10 *555:80 6.38845e-05
9 *439:10 *555:84 0
*RES
1 *1758:X *439:10 43.3443 
2 *439:10 *1760:A2 38 
*END

*D_NET *440 0.00139995
*CONN
*I *1760:A3 I *D sky130_fd_sc_hd__a31oi_2
*I *1759:Y O *D sky130_fd_sc_hd__nand3b_2
*CAP
1 *1760:A3 0
2 *1759:Y 0.000305023
3 *440:10 0.000305023
4 *440:10 *1758:B1 2.93845e-05
5 *440:10 *1758:B2 0.000131009
6 *440:10 *544:34 0.000167452
7 *440:10 *735:8 0.000379431
8 *440:10 *735:14 1.22822e-05
9 *439:10 *440:10 7.03421e-05
*RES
1 *1759:Y *440:10 46.555 
2 *440:10 *1760:A3 38 
*END

*D_NET *441 0.00213109
*CONN
*I *1763:B1 I *D sky130_fd_sc_hd__a22o_2
*I *1769:B1 I *D sky130_fd_sc_hd__a21o_2
*I *1782:A_N I *D sky130_fd_sc_hd__nand2b_2
*I *1760:Y O *D sky130_fd_sc_hd__a31oi_2
*CAP
1 *1763:B1 8.71951e-05
2 *1769:B1 0
3 *1782:A_N 0
4 *1760:Y 0.000203157
5 *441:23 0.000275221
6 *441:17 0.000660863
7 *441:8 0.000501604
8 *1763:B1 *1763:B2 7.07739e-05
9 *441:8 *1782:B 1.21972e-05
10 *441:8 *701:43 2.18409e-05
11 *441:17 *1763:B2 5.90675e-06
12 *441:23 *550:10 9.49693e-05
13 *441:23 *550:12 0.000140661
14 *441:23 *681:32 0
15 *441:23 *736:8 0
16 *1760:B1 *441:8 5.67058e-05
17 *1763:A2 *441:17 0
*RES
1 *1760:Y *441:8 26.9771 
2 *441:8 *1782:A_N 23 
3 *441:8 *441:17 5.40643 
4 *441:17 *441:23 36.1314 
5 *441:23 *1769:B1 23 
6 *441:17 *1763:B1 24.5743 
*END

*D_NET *442 0.00199612
*CONN
*I *1769:A2 I *D sky130_fd_sc_hd__a21o_2
*I *1762:B I *D sky130_fd_sc_hd__nand2_2
*I *1761:X O *D sky130_fd_sc_hd__or3b_2
*CAP
1 *1769:A2 0
2 *1762:B 2.46639e-05
3 *1761:X 0.000266666
4 *442:31 0.000284406
5 *442:10 0.000575736
6 *1762:B *550:10 0.000100477
7 *442:10 *712:42 3.39231e-05
8 *442:10 *713:86 0.00010858
9 *442:10 *731:122 0.000154333
10 *442:31 *443:8 1.05441e-05
11 *442:31 *446:12 9.40615e-06
12 *442:31 *535:33 0.000130277
13 *442:31 *550:10 2.52012e-05
14 *1763:A2 *442:10 5.50106e-05
15 *179:10 *442:10 0.00016277
16 *436:33 *1762:B 5.41288e-05
*RES
1 *1761:X *442:10 45.105 
2 *442:10 *1762:B 39.0979 
3 *442:10 *442:31 31.9781 
4 *442:31 *1769:A2 23 
*END

*D_NET *443 0.00106043
*CONN
*I *1763:B2 I *D sky130_fd_sc_hd__a22o_2
*I *1762:Y O *D sky130_fd_sc_hd__nand2_2
*CAP
1 *1763:B2 0.000119072
2 *1762:Y 0.000156692
3 *443:8 0.000275764
4 *1763:B2 *1763:A1 3.34831e-05
5 *1763:B2 *713:64 0
6 *443:8 *550:10 7.77976e-05
7 *443:8 *550:12 9.98995e-05
8 *443:8 *731:122 6.63814e-05
9 *1763:B1 *1763:B2 7.07739e-05
10 *286:10 *443:8 0.00014411
11 *441:17 *1763:B2 5.90675e-06
12 *442:31 *443:8 1.05441e-05
*RES
1 *1762:Y *443:8 42.7229 
2 *443:8 *1763:B2 40.5686 
*END

*D_NET *444 0.00377827
*CONN
*I *1766:A2 I *D sky130_fd_sc_hd__a21boi_2
*I *1770:A2_N I *D sky130_fd_sc_hd__o2bb2a_2
*I *1765:Y O *D sky130_fd_sc_hd__nand2_2
*CAP
1 *1766:A2 0.000193429
2 *1770:A2_N 0.000170613
3 *1765:Y 0.000251068
4 *444:16 0.000773442
5 *444:8 0.00104733
6 *1766:A2 *556:41 0.000339324
7 *444:8 *556:41 1.01436e-05
8 *444:8 *716:20 3.26321e-05
9 *444:16 *1797:B1 2.93335e-05
10 *444:16 *713:10 0
11 *444:16 *714:70 3.83778e-05
12 *1755:B1 *444:16 4.288e-05
13 *1770:A1_N *444:16 0.000145521
14 *426:92 *1766:A2 5.3304e-05
15 *426:92 *444:16 7.14493e-05
16 *427:30 *444:16 0
17 *432:10 *444:8 0.000354769
18 *437:6 *1770:A2_N 0.000224654
*RES
1 *1765:Y *444:8 43.7793 
2 *444:8 *444:16 38.2443 
3 *444:16 *1770:A2_N 40.5271 
4 *444:8 *1766:A2 42.4329 
*END

*D_NET *445 0.00586849
*CONN
*I *1771:A I *D sky130_fd_sc_hd__nand2_2
*I *1773:B I *D sky130_fd_sc_hd__and2_2
*I *1887:A1 I *D sky130_fd_sc_hd__a2111oi_2
*I *1769:X O *D sky130_fd_sc_hd__a21o_2
*CAP
1 *1771:A 0.000113875
2 *1773:B 0
3 *1887:A1 0.000453372
4 *1769:X 0.000677779
5 *445:45 0.000506481
6 *445:18 0.000204328
7 *445:10 0.000821341
8 *1771:A *446:22 5.58003e-05
9 *1771:A *535:76 6.31864e-05
10 *1887:A1 *545:49 5.5792e-05
11 *1887:A1 *555:14 0.000100486
12 *445:10 *1625:B 0.000182213
13 *445:10 *1781:B 0.000275411
14 *445:10 *449:48 0.000321132
15 *445:10 *545:8 0.00036186
16 *445:10 *646:10 0.000407532
17 *445:10 *736:12 0.000533399
18 *445:18 *454:20 0.000136435
19 *445:18 *545:45 1.0245e-05
20 *445:18 *555:14 7.52747e-05
21 *445:18 *646:10 0
22 *445:45 *1887:B1 2.24869e-05
23 *445:45 *2242:A 3.13952e-05
24 *445:45 *545:49 3.19474e-05
25 *445:45 *545:68 4.41504e-05
26 *1885:A1 *1771:A 9.84794e-05
27 *142:10 *445:18 0.000109352
28 *213:10 *445:10 7.67461e-05
29 *339:10 *445:10 9.79925e-05
*RES
1 *1769:X *445:10 43.3207 
2 *445:10 *445:18 33.2314 
3 *445:18 *1887:A1 24.5743 
4 *445:18 *1773:B 23 
5 *1887:A1 *445:45 44.1314 
6 *445:45 *1771:A 41.0243 
*END

*D_NET *446 0.00822258
*CONN
*I *1887:A2 I *D sky130_fd_sc_hd__a2111oi_2
*I *1771:B I *D sky130_fd_sc_hd__nand2_2
*I *1770:X O *D sky130_fd_sc_hd__o2bb2a_2
*CAP
1 *1887:A2 3.68684e-05
2 *1771:B 0
3 *1770:X 0.000370759
4 *446:22 0.000464342
5 *446:12 0.00291009
6 *446:8 0.00277963
7 *1887:A2 *506:10 0
8 *1887:A2 *545:45 1.41002e-05
9 *446:8 *1744:B 0
10 *446:8 *694:112 1.58785e-05
11 *446:8 *713:10 2.79004e-05
12 *446:12 *535:33 0.000716643
13 *446:12 *681:36 2.51266e-05
14 *446:12 *681:50 2.37336e-05
15 *446:12 *694:112 4.10255e-05
16 *446:22 *535:76 2.64616e-05
17 *446:22 *545:68 0.000186231
18 *1771:A *446:22 5.58003e-05
19 *1887:C1 *446:22 0.00020357
20 *179:10 *446:8 0
21 *413:66 *446:12 0
22 *413:66 *446:22 0
23 *427:18 *446:8 1.26869e-05
24 *436:33 *446:8 0.00030233
25 *442:31 *446:12 9.40615e-06
*RES
1 *1770:X *446:8 45.3639 
2 *446:8 *446:12 13.7232 
3 *446:12 *446:22 27.1504 
4 *446:22 *1771:B 23 
5 *446:12 *1887:A2 46.6732 
*END

*D_NET *447 0.0196747
*CONN
*I *1884:B I *D sky130_fd_sc_hd__and3_2
*I *1772:A I *D sky130_fd_sc_hd__inv_2
*I *1866:A I *D sky130_fd_sc_hd__and3_2
*I *1853:A I *D sky130_fd_sc_hd__and2_2
*I *1847:A3 I *D sky130_fd_sc_hd__a31o_2
*I *1844:A2 I *D sky130_fd_sc_hd__a21oi_2
*I *1846:A2 I *D sky130_fd_sc_hd__a21oi_2
*I *1845:A2 I *D sky130_fd_sc_hd__o21a_2
*I *1849:A3 I *D sky130_fd_sc_hd__a31oi_2
*I *1850:D I *D sky130_fd_sc_hd__and4_2
*I *1771:Y O *D sky130_fd_sc_hd__nand2_2
*CAP
1 *1884:B 4.98931e-05
2 *1772:A 5.68645e-05
3 *1866:A 0.000100779
4 *1853:A 0.000719991
5 *1847:A3 0.000153077
6 *1844:A2 0
7 *1846:A2 0
8 *1845:A2 0
9 *1849:A3 0.000398168
10 *1850:D 7.79542e-05
11 *1771:Y 0.000303186
12 *447:157 0.000299818
13 *447:92 0.000153077
14 *447:85 0.00135694
15 *447:72 0.000146447
16 *447:42 0.00134963
17 *447:36 0.00136727
18 *447:34 0.00180925
19 *447:30 0.000953044
20 *447:26 0.00176466
21 *447:20 0.00036142
22 *447:18 0.00054431
23 *447:12 0.000976547
24 *1772:A *536:86 9.41704e-05
25 *1772:A *675:14 2.64616e-05
26 *1847:A3 *659:82 0.000610918
27 *1847:A3 *662:20 0.000495538
28 *1849:A3 *659:61 0.000437428
29 *1849:A3 *666:34 2.64616e-05
30 *1850:D *1850:C 5.56279e-05
31 *1850:D *481:12 3.91683e-06
32 *1853:A *1858:A1 4.05745e-05
33 *1853:A *482:27 0.000127435
34 *1866:A *1866:C 0.00010018
35 *1866:A *487:20 0.00018282
36 *1866:A *492:43 1.5769e-05
37 *1884:B *535:76 2.95526e-05
38 *1884:B *535:86 6.17437e-06
39 *447:12 *504:6 8.77041e-05
40 *447:12 *504:19 8.42292e-05
41 *447:12 *535:76 2.97099e-05
42 *447:12 *559:31 9.41704e-05
43 *447:18 *1857:A2 9.94675e-05
44 *447:18 *1863:A2 0.000391403
45 *447:18 *1879:A 0.000134088
46 *447:18 *1879:B 0.000131847
47 *447:18 *483:61 0.000296035
48 *447:18 *487:20 0.000178782
49 *447:18 *505:8 6.07929e-05
50 *447:18 *535:106 1.36016e-05
51 *447:18 *559:31 4.04695e-05
52 *447:20 *483:61 0.000164291
53 *447:20 *487:20 0.000154147
54 *447:26 *483:24 8.69994e-05
55 *447:26 *483:61 0.00012868
56 *447:26 *485:10 0
57 *447:26 *487:20 3.47781e-05
58 *447:26 *667:55 3.81476e-05
59 *447:30 *1856:A2 0.000165043
60 *447:30 *477:18 0
61 *447:30 *483:24 2.11157e-05
62 *447:30 *659:14 0
63 *447:30 *659:32 6.00005e-05
64 *447:72 *477:18 1.61013e-05
65 *447:72 *627:10 5.67058e-05
66 *447:72 *659:36 0
67 *447:72 *659:44 3.55697e-05
68 *447:157 *1879:A 0.000239603
69 *447:157 *1879:B 0.000215349
70 *447:157 *501:14 0.000138859
71 *447:157 *559:16 8.78864e-05
72 *447:157 *559:50 1.13812e-05
73 *1710:B1_N *1853:A 4.51431e-05
74 *1710:B1_N *447:26 3.34818e-06
75 *1711:B1_N *1853:A 0.000306338
76 *1885:A1 *447:12 9.84794e-05
77 *14:8 *447:34 0
78 *184:10 *447:30 3.76387e-05
79 *298:8 *1853:A 1.14452e-05
80 *298:8 *447:30 0.000580796
81 *402:6 *1853:A 4.90986e-05
82 *404:22 *447:26 1.73911e-05
83 *417:16 *447:85 3.27399e-05
*RES
1 *1771:Y *447:12 43.075 
2 *447:12 *447:18 11.4757 
3 *447:18 *447:20 2.25786 
4 *447:20 *447:26 4.60893 
5 *447:26 *447:30 17.4932 
6 *447:30 *447:34 16.9057 
7 *447:34 *447:36 4.43286 
8 *447:36 *447:42 26.3514 
9 *447:42 *1850:D 39.0979 
10 *447:42 *1849:A3 45.105 
11 *447:36 *447:72 33.0243 
12 *447:72 *1845:A2 23 
13 *447:34 *447:85 48.2493 
14 *447:85 *1846:A2 23 
15 *447:30 *447:92 15 
16 *447:92 *1844:A2 23 
17 *447:92 *1847:A3 31.41 
18 *447:26 *1853:A 49.2996 
19 *447:20 *1866:A 40.5271 
20 *447:18 *1772:A 39.0979 
21 *447:12 *447:157 35.7379 
22 *447:157 *1884:B 38.6214 
*END

*D_NET *448 0.00153718
*CONN
*I *1776:B I *D sky130_fd_sc_hd__or2_2
*I *1775:Y O *D sky130_fd_sc_hd__a21oi_2
*CAP
1 *1776:B 7.83544e-05
2 *1775:Y 0.000300374
3 *448:10 0.000378729
4 *1776:B *555:29 9.41704e-05
5 *448:10 *1627:A 1.46784e-05
6 *448:10 *1933:A 4.93812e-05
7 *448:10 *555:29 0.000162649
8 *448:10 *555:55 2.01969e-05
9 *1632:B1 *1776:B 5.3304e-05
10 *1776:A *1776:B 0.000140927
11 *171:10 *448:10 0.000152145
12 *333:18 *448:10 5.79559e-05
13 *345:12 *448:10 3.43144e-05
*RES
1 *1775:Y *448:10 45.6021 
2 *448:10 *1776:B 40.0507 
*END

*D_NET *449 0.00832261
*CONN
*I *1788:A2 I *D sky130_fd_sc_hd__a221o_2
*I *1790:C_N I *D sky130_fd_sc_hd__or3b_2
*I *1831:B I *D sky130_fd_sc_hd__nor2_2
*I *1782:Y O *D sky130_fd_sc_hd__nand2b_2
*CAP
1 *1788:A2 0.000136395
2 *1790:C_N 0
3 *1831:B 0.000366207
4 *1782:Y 0
5 *449:48 0.00131616
6 *449:31 0.00025808
7 *449:12 0.00145689
8 *449:6 0.00201237
9 *1788:A2 *1788:B1 2.18693e-05
10 *1788:A2 *735:77 0.000102389
11 *1831:B *471:8 1.48154e-05
12 *449:12 *471:8 1.99785e-05
13 *449:12 *471:12 0
14 *449:12 *555:80 0
15 *449:12 *681:8 0
16 *449:12 *681:19 0
17 *449:12 *681:32 0
18 *449:12 *701:43 0.00109293
19 *449:31 *579:18 3.81699e-05
20 *449:48 *1781:B 0.000142678
21 *449:48 *646:10 0.000161486
22 *449:48 *681:32 0
23 *449:48 *735:77 0
24 *449:48 *736:25 1.74467e-05
25 *1726:B *449:31 8.52094e-06
26 *1760:B1 *449:12 0
27 *1760:B1 *449:48 0
28 *133:16 *1831:B 6.62761e-05
29 *212:10 *449:48 0
30 *215:8 *449:12 0.000206416
31 *295:10 *449:31 6.35097e-05
32 *326:19 *449:31 0.000193024
33 *339:10 *449:48 9.79925e-05
34 *411:31 *449:31 1.74126e-05
35 *413:8 *449:31 3.46216e-05
36 *413:31 *449:31 4.16878e-06
37 *413:66 *449:48 0.000151665
38 *445:10 *449:48 0.000321132
*RES
1 *1782:Y *449:6 38 
2 *449:6 *449:12 33.5186 
3 *449:12 *1831:B 28.3029 
4 *449:12 *449:31 36.1729 
5 *449:31 *1790:C_N 23 
6 *449:6 *449:48 48.56 
7 *449:48 *1788:A2 40.5945 
*END

*D_NET *450 0.00392347
*CONN
*I *1841:B I *D sky130_fd_sc_hd__and2_2
*I *1784:B I *D sky130_fd_sc_hd__nor2_2
*I *1783:X O *D sky130_fd_sc_hd__a22o_2
*CAP
1 *1841:B 0
2 *1784:B 0.000362949
3 *1783:X 0.000254973
4 *450:33 0.00076704
5 *450:12 0.00112999
6 *450:10 0.000254973
7 *1784:B *2222:A 0.000221992
8 *1784:B *624:10 1.94693e-05
9 *450:10 *535:15 7.9835e-05
10 *450:33 *1722:B1 5.50106e-05
11 *450:33 *1841:A 7.25816e-05
12 *450:33 *2223:A 5.56356e-05
13 *450:33 *708:16 7.42621e-05
14 *450:33 *726:34 0
15 *450:33 *734:12 9.24795e-06
16 *179:10 *450:10 8.36198e-05
17 *186:8 *450:33 0
18 *330:25 *450:10 0.00048189
19 *330:25 *450:33 0
*RES
1 *1783:X *450:10 44.2091 
2 *450:10 *450:12 15 
3 *450:12 *1784:B 29.3593 
4 *450:12 *450:33 44.1893 
5 *450:33 *1841:B 23 
*END

*D_NET *451 0.00314806
*CONN
*I *1788:C1 I *D sky130_fd_sc_hd__a221o_2
*I *1784:Y O *D sky130_fd_sc_hd__nor2_2
*CAP
1 *1788:C1 0.000639743
2 *1784:Y 0.000468117
3 *451:14 0.00110786
4 *1788:C1 *1626:A 0.000192342
5 *1788:C1 *1626:B 5.38446e-05
6 *1788:C1 *1788:B1 3.23857e-06
7 *1788:C1 *735:77 0.00021827
8 *451:14 *1626:A 0.000285603
9 *451:14 *2185:A 5.33597e-05
10 *294:10 *451:14 0.000125688
*RES
1 *1784:Y *451:14 47.4457 
2 *451:14 *1788:C1 49.2893 
*END

*D_NET *452 0.000236955
*CONN
*I *1787:A I *D sky130_fd_sc_hd__nor2_2
*I *1785:X O *D sky130_fd_sc_hd__o21a_2
*CAP
1 *1787:A 2.81367e-05
2 *1785:X 2.81367e-05
3 *1787:A *1787:B 9.84794e-05
4 *1787:A *705:22 2.88979e-05
5 *1787:A *738:29 5.3304e-05
*RES
1 *1785:X *1787:A 47.0979 
*END

*D_NET *453 0.00125173
*CONN
*I *1787:B I *D sky130_fd_sc_hd__nor2_2
*I *1786:X O *D sky130_fd_sc_hd__o21a_2
*CAP
1 *1787:B 0.000172377
2 *1786:X 0.000145565
3 *453:10 0.000317942
4 *1787:B *705:22 4.66047e-05
5 *1787:B *738:29 7.23821e-05
6 *453:10 *705:12 1.85961e-05
7 *453:10 *705:16 5.56306e-05
8 *453:10 *705:57 0.000180224
9 *453:10 *738:39 0.000114065
10 *1787:A *1787:B 9.84794e-05
11 *402:6 *453:10 2.98648e-05
*RES
1 *1786:X *453:10 41.9564 
2 *453:10 *1787:B 41.5007 
*END

*D_NET *454 0.0052496
*CONN
*I *1789:A2 I *D sky130_fd_sc_hd__o21bai_2
*I *1788:B1 I *D sky130_fd_sc_hd__a221o_2
*I *1787:Y O *D sky130_fd_sc_hd__nor2_2
*CAP
1 *1789:A2 0
2 *1788:B1 0.000228853
3 *1787:Y 0.000304454
4 *454:20 0.00103953
5 *454:14 0.000966833
6 *454:8 0.000460613
7 *1788:B1 *555:14 9.65021e-05
8 *1788:B1 *735:77 3.22051e-05
9 *454:8 *482:27 0
10 *454:8 *675:33 0
11 *454:8 *677:27 7.14436e-05
12 *454:8 *705:10 6.02277e-06
13 *454:8 *705:12 7.70231e-05
14 *454:8 *705:16 2.12001e-05
15 *454:20 *2086:CLK 0.000144164
16 *454:20 *535:43 0
17 *454:20 *544:23 0
18 *454:20 *545:10 9.01159e-05
19 *454:20 *545:45 7.90598e-05
20 *454:20 *733:16 0
21 *454:20 *733:20 0.000184816
22 *1788:A2 *1788:B1 2.18693e-05
23 *1788:C1 *1788:B1 3.23857e-06
24 *1789:B1_N *454:14 0
25 *141:10 *454:20 0.000110024
26 *142:10 *1788:B1 0.000143163
27 *142:10 *454:20 9.96602e-05
28 *250:10 *1788:B1 4.33149e-05
29 *329:10 *454:20 3.884e-05
30 *329:12 *454:20 4.21594e-06
31 *404:16 *454:14 3.17634e-05
32 *405:8 *454:14 0.000477634
33 *413:41 *454:8 1.83564e-05
34 *413:41 *454:14 0.000318251
35 *413:41 *454:20 0
36 *445:18 *454:20 0.000136435
*RES
1 *1787:Y *454:8 43.4271 
2 *454:8 *454:14 20.8829 
3 *454:14 *454:20 46.3436 
4 *454:20 *1788:B1 28.5721 
5 *454:14 *1789:A2 23 
*END

*D_NET *455 0.0022424
*CONN
*I *1794:A2 I *D sky130_fd_sc_hd__a211o_2
*I *1793:Y O *D sky130_fd_sc_hd__nand2_2
*CAP
1 *1794:A2 0
2 *1793:Y 0.000595162
3 *455:12 0.000595162
4 *455:12 *1717:B 0.00010018
5 *455:12 *1793:A 9.50411e-05
6 *455:12 *556:88 0.000561356
7 *455:12 *719:74 0.000166522
8 *1793:B *455:12 0
9 *1794:B1 *455:12 0.000128975
*RES
1 *1793:Y *455:12 49.9936 
2 *455:12 *1794:A2 38 
*END

*D_NET *456 0.000593641
*CONN
*I *1797:B1 I *D sky130_fd_sc_hd__a211o_2
*I *1796:X O *D sky130_fd_sc_hd__and3_2
*CAP
1 *1797:B1 0.000140343
2 *1796:X 0.000140343
3 *1797:B1 *1796:A 5.25848e-05
4 *1797:B1 *1797:A1 2.02517e-05
5 *1797:B1 *556:31 0.000102093
6 *1797:B1 *716:20 1.21972e-05
7 *1755:B1 *1797:B1 9.64943e-05
8 *444:16 *1797:B1 2.93335e-05
*RES
1 *1796:X *1797:B1 49.9979 
*END

*D_NET *457 0.00161472
*CONN
*I *2220:A I *D sky130_fd_sc_hd__dlygate4sd3_1
*I *1803:Y O *D sky130_fd_sc_hd__a21oi_2
*CAP
1 *2220:A 4.24211e-05
2 *1803:Y 0.000569392
3 *457:10 0.000611813
4 *457:10 *522:16 0
5 *457:10 *535:313 9.55085e-05
6 *457:10 *548:58 0.000100477
7 *457:10 *548:70 0
8 *457:10 *549:28 5.44006e-05
9 *457:10 *590:22 0
10 *457:10 *623:10 0.000108319
11 *457:10 *648:8 0
12 *149:10 *457:10 0
13 *232:8 *457:10 3.23861e-05
*RES
1 *1803:Y *457:10 49.455 
2 *457:10 *2220:A 38.6214 
*END

*D_NET *458 0.000259335
*CONN
*I *1809:B I *D sky130_fd_sc_hd__nor3_2
*I *1807:Y O *D sky130_fd_sc_hd__a21oi_2
*CAP
1 *1809:B 0
2 *1807:Y 0.000129667
3 *458:8 0.000129667
*RES
1 *1807:Y *458:8 39.9057 
2 *458:8 *1809:B 38 
*END

*D_NET *459 0.00467374
*CONN
*I *1814:A3 I *D sky130_fd_sc_hd__a31oi_2
*I *1815:D I *D sky130_fd_sc_hd__and4_2
*I *1810:B I *D sky130_fd_sc_hd__nand2_2
*I *1811:B I *D sky130_fd_sc_hd__or2_2
*I *1809:C I *D sky130_fd_sc_hd__nor3_2
*I *1808:X O *D sky130_fd_sc_hd__and3_2
*CAP
1 *1814:A3 0
2 *1815:D 0.000267968
3 *1810:B 0
4 *1811:B 0.000327688
5 *1809:C 0.000304819
6 *1808:X 0.000224334
7 *459:58 0.000708047
8 *459:43 0.000552021
9 *459:10 0.000744899
10 *1809:C *530:10 4.91172e-06
11 *1809:C *676:27 0.000226902
12 *1811:B *2010:A 8.88287e-05
13 *1811:B *460:8 7.6774e-06
14 *1811:B *530:10 0
15 *1811:B *676:27 3.46013e-05
16 *1811:B *751:8 8.70594e-05
17 *1815:D *1658:B 0
18 *1815:D *540:54 7.1349e-05
19 *1815:D *752:84 4.21594e-06
20 *1815:D *754:44 7.30978e-05
21 *1815:D *754:48 0.00010018
22 *459:10 *676:27 0.000111106
23 *459:10 *751:8 5.27729e-05
24 *459:43 *1808:B 4.00259e-06
25 *459:43 *1810:A 2.87706e-05
26 *459:43 *1812:A 1.91381e-05
27 *459:43 *632:10 2.4754e-05
28 *459:58 *1812:A 5.80104e-05
29 *459:58 *2111:CLK 0
30 *459:58 *540:54 0
31 *459:58 *632:10 0.000280954
32 *459:58 *752:84 0.000140934
33 *1808:C *459:43 3.28357e-06
34 *162:10 *459:58 6.28488e-05
35 *163:8 *1815:D 2.76611e-06
36 *248:6 *1811:B 5.58003e-05
*RES
1 *1808:X *459:10 40.175 
2 *459:10 *1809:C 43.4064 
3 *459:10 *1811:B 45.0221 
4 *1808:X *459:43 26.045 
5 *459:43 *1810:B 23 
6 *459:43 *459:58 25.8543 
7 *459:58 *1815:D 43.8414 
8 *459:58 *1814:A3 38 
*END

*D_NET *460 0.000574316
*CONN
*I *1812:A I *D sky130_fd_sc_hd__and2_2
*I *1813:B I *D sky130_fd_sc_hd__xnor2_2
*I *1810:Y O *D sky130_fd_sc_hd__nand2_2
*CAP
1 *1812:A 7.43847e-05
2 *1813:B 0
3 *1810:Y 0.000165633
4 *460:8 9.12486e-05
5 *460:8 *632:10 8.07381e-05
6 *460:8 *676:27 7.74854e-05
7 *1811:B *460:8 7.6774e-06
8 *459:43 *1812:A 1.91381e-05
9 *459:58 *1812:A 5.80104e-05
*RES
1 *1810:Y *460:8 40.61 
2 *460:8 *1813:B 38 
3 *1810:Y *1812:A 47.595 
*END

*D_NET *461 0.000756745
*CONN
*I *1812:B I *D sky130_fd_sc_hd__and2_2
*I *1811:X O *D sky130_fd_sc_hd__or2_2
*CAP
1 *1812:B 0
2 *1811:X 0.000205017
3 *461:8 0.000205017
4 *461:8 *1811:A 5.28551e-05
5 *461:8 *2111:CLK 0.000190742
6 *461:8 *752:12 3.96108e-05
7 *162:10 *461:8 6.35028e-05
*RES
1 *1811:X *461:8 43.075 
2 *461:8 *1812:B 38 
*END

*D_NET *462 0.00108745
*CONN
*I *1816:B I *D sky130_fd_sc_hd__nor3_2
*I *1814:Y O *D sky130_fd_sc_hd__a31oi_2
*CAP
1 *1816:B 6.86288e-05
2 *1814:Y 0.000145811
3 *462:8 0.00021444
4 *1816:B *1816:C 5.50106e-05
5 *462:8 *1658:B 0.000133532
6 *462:8 *1658:C_N 0.000277714
7 *462:8 *753:66 1.01436e-05
8 *462:8 *754:23 0.000132665
9 *1658:A *1816:B 4.95081e-05
*RES
1 *1814:Y *462:8 43.4271 
2 *462:8 *1816:B 39.5743 
*END

*D_NET *463 0.00222376
*CONN
*I *1816:C I *D sky130_fd_sc_hd__nor3_2
*I *1817:B I *D sky130_fd_sc_hd__and2_2
*I *1819:A2 I *D sky130_fd_sc_hd__o21a_2
*I *1815:X O *D sky130_fd_sc_hd__and4_2
*CAP
1 *1816:C 0.00011384
2 *1817:B 0.000269169
3 *1819:A2 3.67067e-05
4 *1815:X 0.000134198
5 *463:12 0.000472704
6 *463:8 0.000414866
7 *1816:C *1816:A 7.88926e-05
8 *1817:B *1817:A 9.84851e-05
9 *1817:B *1819:A1 5.67058e-05
10 *1817:B *464:10 0.000126629
11 *463:8 *1658:B 0
12 *1658:A *1816:C 9.5877e-05
13 *1816:B *1816:C 5.50106e-05
14 *163:8 *463:8 0
15 *365:10 *463:12 0
16 *365:20 *1816:C 0.000270682
17 *366:10 *463:8 0
18 *366:10 *463:12 0
19 *366:23 *463:8 0
*RES
1 *1815:X *463:8 40.2579 
2 *463:8 *463:12 17.2579 
3 *463:12 *1819:A2 23.6214 
4 *463:12 *1817:B 29.38 
5 *463:8 *1816:C 41.9564 
*END

*D_NET *464 0.00466972
*CONN
*I *1822:A2 I *D sky130_fd_sc_hd__a21oi_2
*I *1820:B I *D sky130_fd_sc_hd__xor2_2
*I *1818:B I *D sky130_fd_sc_hd__nor2_2
*I *1821:C I *D sky130_fd_sc_hd__and3_2
*I *1817:X O *D sky130_fd_sc_hd__and2_2
*CAP
1 *1822:A2 0
2 *1820:B 0.000122165
3 *1818:B 0.000135622
4 *1821:C 0.000319675
5 *1817:X 0.000597229
6 *464:29 0.000257788
7 *464:16 0.000414455
8 *464:10 0.00069201
9 *1821:C *1823:A 9.84851e-05
10 *1821:C *466:8 8.06804e-06
11 *1821:C *467:10 0.000247158
12 *1821:C *539:35 0.000277595
13 *1821:C *539:48 0.000420705
14 *1821:C *688:124 0.000228123
15 *464:10 *1817:A 5.41385e-05
16 *464:10 *1819:A1 6.17437e-06
17 *464:10 *539:48 0.000136132
18 *464:10 *755:19 0
19 *464:16 *467:10 0.000129871
20 *464:16 *539:48 0.000187121
21 *464:16 *688:124 3.91699e-05
22 *1817:B *464:10 0.000126629
23 *1818:A *1818:B 4.63794e-05
24 *1818:A *464:10 7.91206e-05
25 *365:10 *464:10 0
26 *367:20 *464:10 4.59027e-05
*RES
1 *1817:X *464:10 48.9371 
2 *464:10 *464:16 3.37643 
3 *464:16 *1821:C 48.875 
4 *464:16 *464:29 15 
5 *464:29 *1818:B 25.5686 
6 *464:29 *1820:B 1.97821 
7 *464:10 *1822:A2 38 
*END

*D_NET *465 0.00123698
*CONN
*I *1819:B1 I *D sky130_fd_sc_hd__o21a_2
*I *1818:Y O *D sky130_fd_sc_hd__nor2_2
*CAP
1 *1819:B1 0
2 *1818:Y 0.0002271
3 *465:8 0.0002271
4 *1818:A *465:8 0.000412139
5 *164:8 *465:8 8.51432e-05
6 *365:10 *465:8 0
7 *366:10 *465:8 0.000127269
8 *367:20 *465:8 0.000158229
*RES
1 *1818:Y *465:8 45.8921 
2 *465:8 *1819:B1 38 
*END

*D_NET *466 0.00531042
*CONN
*I *1825:C I *D sky130_fd_sc_hd__and3_2
*I *1823:A I *D sky130_fd_sc_hd__nor2_2
*I *1824:B I *D sky130_fd_sc_hd__xor2_2
*I *1826:A2 I *D sky130_fd_sc_hd__a21oi_2
*I *1821:X O *D sky130_fd_sc_hd__and3_2
*CAP
1 *1825:C 0
2 *1823:A 0.000131864
3 *1824:B 0.000596679
4 *1826:A2 0.000157111
5 *1821:X 0
6 *466:42 0.000295773
7 *466:8 0.00125863
8 *466:4 0.000932472
9 *1823:A *1821:A 5.67058e-05
10 *1823:A *1821:B 1.76557e-05
11 *1824:B *2251:A 0
12 *1824:B *685:26 0.000580185
13 *1826:A2 *2251:A 0
14 *1826:A2 *469:10 0.000133316
15 *1826:A2 *656:10 2.49733e-05
16 *1826:A2 *685:26 0.000270453
17 *466:8 *1827:B 1.59094e-05
18 *466:8 *1992:A 3.71369e-05
19 *466:8 *2251:A 2.93845e-05
20 *466:8 *684:40 8.65442e-05
21 *466:8 *688:27 0.000107929
22 *466:42 *1825:B 0.000184661
23 *466:42 *549:99 0.000120644
24 *466:42 *685:26 0
25 *466:42 *685:28 0
26 *466:42 *685:41 0
27 *466:42 *743:32 9.08119e-05
28 *1821:C *1823:A 9.84851e-05
29 *1821:C *466:8 8.06804e-06
30 *151:10 *1823:A 5.70419e-05
31 *241:10 *466:42 1.7992e-05
*RES
1 *1821:X *466:4 23 
2 *466:4 *466:8 26.1029 
3 *466:8 *1826:A2 41.6664 
4 *466:8 *1824:B 22.8921 
5 *466:4 *1823:A 26.7286 
6 *1824:B *466:42 37.54 
7 *466:42 *1825:C 23 
*END

*D_NET *467 0.00123093
*CONN
*I *2190:A I *D sky130_fd_sc_hd__dlygate4sd3_1
*I *1822:Y O *D sky130_fd_sc_hd__a21oi_2
*CAP
1 *2190:A 0
2 *1822:Y 0.00022467
3 *467:10 0.00022467
4 *467:10 *1822:A1 1.24376e-05
5 *467:10 *535:290 1.61361e-05
6 *467:10 *688:124 0.000375985
7 *1821:C *467:10 0.000247158
8 *464:16 *467:10 0.000129871
*RES
1 *1822:Y *467:10 44.1729 
2 *467:10 *2190:A 38 
*END

*D_NET *468 0.00486875
*CONN
*I *1828:B I *D sky130_fd_sc_hd__nand2_2
*I *1827:A I *D sky130_fd_sc_hd__nor2_2
*I *1829:B I *D sky130_fd_sc_hd__xor2_2
*I *1825:X O *D sky130_fd_sc_hd__and3_2
*CAP
1 *1828:B 0
2 *1827:A 0
3 *1829:B 0.000545764
4 *1825:X 0.000173764
5 *468:45 0.000325631
6 *468:14 0.000986597
7 *468:8 0.000940228
8 *1829:B *1829:A 0.000102389
9 *1829:B *688:27 0.000597758
10 *468:14 *620:10 0.000141975
11 *468:14 *685:26 0.000233962
12 *468:14 *685:28 0.000129135
13 *468:14 *685:41 5.59881e-05
14 *468:14 *687:18 2.05503e-05
15 *468:14 *688:27 3.06991e-05
16 *468:45 *510:6 9.75779e-05
17 *468:45 *548:12 0.000218852
18 *468:45 *682:34 0
19 *468:45 *688:27 5.03716e-05
20 *468:45 *688:41 5.12254e-05
21 *153:8 *468:14 0.000166281
*RES
1 *1825:X *468:8 40.0507 
2 *468:8 *468:14 31.965 
3 *468:14 *1829:B 7.26036 
4 *468:14 *1827:A 23 
5 *1829:B *468:45 37.0118 
6 *468:45 *1828:B 23 
*END

*D_NET *469 0.000841194
*CONN
*I *1827:B I *D sky130_fd_sc_hd__nor2_2
*I *1826:Y O *D sky130_fd_sc_hd__a21oi_2
*CAP
1 *1827:B 7.75647e-05
2 *1826:Y 0.000130525
3 *469:10 0.00020809
4 *1827:B *688:27 0.000136738
5 *469:10 *656:10 8.4047e-05
6 *1826:A2 *469:10 0.000133316
7 *337:42 *469:10 5.50049e-05
8 *466:8 *1827:B 1.59094e-05
*RES
1 *1826:Y *469:10 40.5271 
2 *469:10 *1827:B 39.5743 
*END

*D_NET *470 0.00181251
*CONN
*I *1830:B I *D sky130_fd_sc_hd__xnor2_2
*I *1828:Y O *D sky130_fd_sc_hd__nand2_2
*CAP
1 *1830:B 4.16892e-05
2 *1828:Y 0.000489656
3 *470:10 0.000531345
4 *1830:B *1803:B1 0.000100486
5 *470:10 *688:56 0.000512497
6 *470:10 *745:39 0.000136841
7 *247:8 *470:10 0
*RES
1 *1828:Y *470:10 47.8393 
2 *470:10 *1830:B 39.0979 
*END

*D_NET *471 0.00446372
*CONN
*I *1832:B I *D sky130_fd_sc_hd__nor2_2
*I *1833:B I *D sky130_fd_sc_hd__nor2_2
*I *1831:Y O *D sky130_fd_sc_hd__nor2_2
*CAP
1 *1832:B 2.51535e-05
2 *1833:B 0
3 *1831:Y 0.000613781
4 *471:20 0.000193281
5 *471:12 0.000627629
6 *471:8 0.00102298
7 *1832:B *731:68 7.50355e-05
8 *471:12 *2157:A 0
9 *471:12 *681:8 0.000488852
10 *471:20 *731:12 9.79925e-05
11 *471:20 *731:68 2.33782e-05
12 *1831:B *471:8 1.48154e-05
13 *133:16 *471:8 0.000221084
14 *319:8 *471:12 5.511e-05
15 *320:8 *471:12 0.000592513
16 *320:8 *471:20 0.000108114
17 *411:16 *471:20 0
18 *412:14 *1832:B 0.000145171
19 *412:14 *471:20 0.000138859
20 *449:12 *471:8 1.99785e-05
21 *449:12 *471:12 0
*RES
1 *1831:Y *471:8 45.7679 
2 *471:8 *471:12 27.1179 
3 *471:12 *471:20 34.8886 
4 *471:20 *1833:B 23 
5 *471:12 *1832:B 24.5743 
*END

*D_NET *472 0.000923099
*CONN
*I *1835:C1 I *D sky130_fd_sc_hd__a311o_2
*I *1834:Y O *D sky130_fd_sc_hd__nor3_2
*CAP
1 *1835:C1 0
2 *1834:Y 0.000184671
3 *472:8 0.000184671
4 *472:8 *1834:B 1.32314e-05
5 *472:8 *1835:A3 5.3304e-05
6 *472:8 *473:10 5.67058e-05
7 *472:8 *650:10 0.00026025
8 *472:8 *750:35 8.68407e-05
9 *472:8 *751:14 1.21972e-05
10 *472:8 *751:16 1.40958e-05
11 *1835:B1 *472:8 5.71321e-05
*RES
1 *1834:Y *472:8 27.93 
2 *472:8 *1835:C1 23 
*END

*D_NET *473 0.000437755
*CONN
*I *1836:C I *D sky130_fd_sc_hd__or4b_2
*I *1835:X O *D sky130_fd_sc_hd__a311o_2
*CAP
1 *1836:C 0
2 *1835:X 0.00015709
3 *473:10 0.00015709
4 *473:10 *650:10 6.6869e-05
5 *472:8 *473:10 5.67058e-05
*RES
1 *1835:X *473:10 40.5271 
2 *473:10 *1836:C 38 
*END

*D_NET *474 0.000281365
*CONN
*I *1840:B I *D sky130_fd_sc_hd__or4_2
*I *1837:X O *D sky130_fd_sc_hd__or4bb_2
*CAP
1 *1840:B 0.000113618
2 *1837:X 0.000113618
3 *1840:B *767:57 5.41288e-05
*RES
1 *1837:X *1840:B 47.5743 
*END

*D_NET *475 0.00146905
*CONN
*I *1840:C I *D sky130_fd_sc_hd__or4_2
*I *1838:X O *D sky130_fd_sc_hd__or4bb_2
*CAP
1 *1840:C 0
2 *1838:X 0.00037478
3 *475:8 0.00037478
4 *475:8 *1676:A 0.000236924
5 *475:8 *757:10 0.000137694
6 *475:8 *758:22 5.80693e-05
7 *475:8 *767:57 0.000105175
8 *475:8 *770:56 0
9 *357:8 *475:8 4.83778e-05
10 *382:8 *475:8 0.000133247
11 *383:25 *475:8 0
*RES
1 *1838:X *475:8 47.3007 
2 *475:8 *1840:C 38 
*END

*D_NET *476 0.000440183
*CONN
*I *1840:D I *D sky130_fd_sc_hd__or4_2
*I *1839:Y O *D sky130_fd_sc_hd__nand3b_2
*CAP
1 *1840:D 0
2 *1839:Y 0.00015228
3 *476:10 0.00015228
4 *476:10 *765:25 3.71369e-05
5 *476:10 *766:28 9.84851e-05
6 *356:10 *476:10 0
7 *357:8 *476:10 0
*RES
1 *1839:Y *476:10 41.0036 
2 *476:10 *1840:D 38 
*END

*D_NET *477 0.000681775
*CONN
*I *1845:B1 I *D sky130_fd_sc_hd__o21a_2
*I *1844:Y O *D sky130_fd_sc_hd__a21oi_2
*CAP
1 *1845:B1 0
2 *1844:Y 0.000262305
3 *477:18 0.000262305
4 *477:18 *1844:B1 2.46922e-05
5 *477:18 *659:38 5.50106e-05
6 *477:18 *662:14 0
7 *477:18 *662:20 5.67058e-05
8 *477:18 *678:28 4.65439e-06
9 *447:30 *477:18 0
10 *447:72 *477:18 1.61013e-05
*RES
1 *1844:Y *477:18 42.3086 
2 *477:18 *1845:B1 38 
*END

*D_NET *478 0.0069834
*CONN
*I *1848:A I *D sky130_fd_sc_hd__nor2_2
*I *1846:Y O *D sky130_fd_sc_hd__a21oi_2
*CAP
1 *1848:A 0
2 *1846:Y 0.000127896
3 *478:32 0.000531034
4 *478:22 0.00204595
5 *478:18 0.00173672
6 *478:10 0.000349705
7 *478:10 *1732:B1 5.71002e-06
8 *478:10 *1846:A1 2.31687e-05
9 *478:10 *627:10 5.50049e-05
10 *478:18 *484:12 3.56295e-05
11 *478:18 *680:36 0.000136546
12 *478:22 *1849:A1 2.64616e-05
13 *478:22 *1849:B1 0.000152968
14 *478:22 *1953:A 2.95526e-05
15 *478:22 *2191:A 0.000102773
16 *478:22 *723:8 5.7175e-05
17 *478:32 *2018:CLK 0.00055003
18 *478:32 *662:14 1.00084e-05
19 *478:32 *662:45 7.2918e-05
20 *2057:D *478:22 0.000186032
21 *252:12 *478:32 8.21278e-05
22 *291:18 *478:18 0.000255363
23 *415:33 *478:10 0.000160473
24 *418:22 *478:10 5.94818e-05
25 *418:22 *478:18 9.41704e-05
26 *419:8 *478:10 9.65021e-05
*RES
1 *1846:Y *478:10 41.3557 
2 *478:10 *478:18 35.7379 
3 *478:18 *478:22 35.155 
4 *478:22 *478:32 38.8657 
5 *478:32 *1848:A 23 
*END

*D_NET *479 0.00495388
*CONN
*I *1848:B I *D sky130_fd_sc_hd__nor2_2
*I *1847:X O *D sky130_fd_sc_hd__a31o_2
*CAP
1 *1848:B 0
2 *1847:X 0.000132509
3 *479:18 0.00154857
4 *479:8 0.00168108
5 *479:8 *1732:B1 0
6 *479:8 *675:33 8.76351e-05
7 *479:8 *678:45 0
8 *479:18 *2018:CLK 0.000212924
9 *479:18 *481:22 0.00100853
10 *479:18 *536:20 2.39778e-06
11 *479:18 *659:14 9.79925e-05
12 *252:12 *479:18 0.000145517
13 *254:14 *479:8 3.673e-05
*RES
1 *1847:X *479:8 40.61 
2 *479:8 *479:18 41.7629 
3 *479:18 *1848:B 23 
*END

*D_NET *480 0.0017472
*CONN
*I *1851:B I *D sky130_fd_sc_hd__nor3_2
*I *1849:Y O *D sky130_fd_sc_hd__a31oi_2
*CAP
1 *1851:B 0
2 *1849:Y 0.000406982
3 *480:10 0.000406982
4 *480:10 *2191:A 0.000454153
5 *480:10 *536:12 0.00020829
6 *480:10 *536:20 0.000165394
7 *480:10 *666:34 5.58003e-05
8 *253:8 *480:10 4.96024e-05
*RES
1 *1849:Y *480:10 47.9843 
2 *480:10 *1851:B 38 
*END

*D_NET *481 0.00614899
*CONN
*I *1851:C I *D sky130_fd_sc_hd__nor3_2
*I *1855:A2 I *D sky130_fd_sc_hd__o21a_2
*I *1850:X O *D sky130_fd_sc_hd__and4_2
*CAP
1 *1851:C 0.000562546
2 *1855:A2 0
3 *1850:X 0.000760848
4 *481:22 0.000388441
5 *481:14 0.0010244
6 *481:12 0.000834258
7 *1851:C *568:10 0.000145171
8 *481:12 *1850:B 9.9075e-05
9 *481:12 *1850:C 9.87385e-06
10 *481:12 *627:10 0.000230604
11 *481:12 *659:44 7.44161e-06
12 *481:12 *662:14 0
13 *481:12 *662:29 0.00015285
14 *481:22 *1946:A 0.000403245
15 *481:22 *536:20 0.000116725
16 *481:22 *679:10 0.000101743
17 *481:22 *680:36 7.64944e-05
18 *1850:D *481:12 3.91683e-06
19 *2017:D *481:22 1.64354e-05
20 *184:10 *481:22 2.10502e-05
21 *251:10 *1851:C 1.74126e-05
22 *251:10 *481:12 6.1496e-05
23 *251:10 *481:14 4.84057e-05
24 *253:8 *1851:C 5.18573e-05
25 *254:8 *481:22 6.17437e-06
26 *479:18 *481:22 0.00100853
*RES
1 *1850:X *481:12 49.1754 
2 *481:12 *481:14 1.5225 
3 *481:14 *481:22 30.08 
4 *481:22 *1855:A2 23 
5 *481:14 *1851:C 47.8186 
*END

*D_NET *482 0.00769687
*CONN
*I *1880:A I *D sky130_fd_sc_hd__nand4_2
*I *1882:A I *D sky130_fd_sc_hd__and4_2
*I *1853:B I *D sky130_fd_sc_hd__and2_2
*I *1866:B I *D sky130_fd_sc_hd__and3_2
*I *1852:X O *D sky130_fd_sc_hd__and4_2
*CAP
1 *1880:A 0.000235616
2 *1882:A 0.000191203
3 *1853:B 0
4 *1866:B 0
5 *1852:X 0.000224889
6 *482:34 0.00117049
7 *482:27 0.000657513
8 *482:12 0.00115064
9 *482:8 0.00146169
10 *1880:A *2292:A 2.26441e-05
11 *1880:A *495:16 0
12 *1880:A *686:37 0.000100486
13 *1880:A *697:14 1.34373e-05
14 *1880:A *704:29 0.000100486
15 *1882:A *494:20 4.38068e-06
16 *1882:A *495:26 0.000183733
17 *482:8 *1865:D 0
18 *482:8 *492:26 4.6318e-06
19 *482:8 *536:8 0
20 *482:8 *662:73 0.000138727
21 *482:12 *492:26 0.000138098
22 *482:12 *667:12 0.000137651
23 *482:12 *667:55 0.000129522
24 *482:27 *1858:A2 0.000100733
25 *482:27 *492:26 9.84794e-05
26 *482:27 *492:43 0.00021126
27 *482:27 *675:33 0.000159648
28 *482:34 *1863:A1 0
29 *482:34 *1865:D 2.10281e-05
30 *482:34 *2140:A 0
31 *482:34 *2292:A 0.000204431
32 *482:34 *492:26 4.97547e-05
33 *482:34 *495:16 0
34 *482:34 *535:86 0
35 *482:34 *536:8 0
36 *482:34 *679:79 0.000343054
37 *1853:A *482:27 0.000127435
38 *257:10 *482:34 0
39 *402:6 *482:27 6.68048e-05
40 *404:16 *482:27 0.000230753
41 *404:22 *482:27 1.76557e-05
42 *454:8 *482:27 0
*RES
1 *1852:X *482:8 42.0186 
2 *482:8 *482:12 22.2914 
3 *482:12 *1866:B 23 
4 *482:12 *482:27 41.6 
5 *482:27 *1853:B 23 
6 *482:8 *482:34 14.2307 
7 *482:34 *1882:A 41.0243 
8 *482:34 *1880:A 43.1164 
*END

*D_NET *483 0.00997168
*CONN
*I *1857:A2 I *D sky130_fd_sc_hd__o21a_2
*I *1859:C I *D sky130_fd_sc_hd__and3_2
*I *1861:D I *D sky130_fd_sc_hd__and4_2
*I *1854:B I *D sky130_fd_sc_hd__nor2_2
*I *1856:A2 I *D sky130_fd_sc_hd__a21oi_2
*I *1858:A2 I *D sky130_fd_sc_hd__a21oi_2
*I *1853:X O *D sky130_fd_sc_hd__and2_2
*CAP
1 *1857:A2 0.000218398
2 *1859:C 0.00020373
3 *1861:D 0
4 *1854:B 0
5 *1856:A2 0.00010678
6 *1858:A2 1.32042e-05
7 *1853:X 0.000445463
8 *483:61 0.000768116
9 *483:47 0.000433582
10 *483:39 0.00115773
11 *483:24 0.00101326
12 *483:18 0.000960581
13 *1856:A2 *1856:B1 0
14 *1856:A2 *485:10 0
15 *1856:A2 *659:14 2.76611e-06
16 *1857:A2 *1857:A1 8.12205e-05
17 *1857:A2 *1886:B 1.57571e-05
18 *1857:A2 *492:43 2.96369e-05
19 *1857:A2 *681:94 9.41704e-05
20 *1859:C *1859:A 0.000182832
21 *1859:C *487:8 2.31797e-05
22 *483:18 *1858:A1 8.48502e-06
23 *483:18 *486:6 0.000256544
24 *483:24 *485:10 0
25 *483:24 *486:6 0.000139352
26 *483:39 *1861:C 0.000537949
27 *483:39 *486:6 8.96558e-05
28 *483:39 *619:6 5.41288e-05
29 *483:39 *667:18 0.000282124
30 *483:47 *488:10 7.39868e-06
31 *483:61 *492:43 0.000140518
32 *483:61 *675:14 2.24608e-05
33 pcRegister[6] *483:47 0
34 *101:8 *483:47 0.000123015
35 *115:12 *483:39 0.000274389
36 *116:10 *483:47 0.000558062
37 *216:10 *1857:A2 0.000136738
38 *402:6 *1858:A2 0.00010018
39 *402:6 *483:18 0.000264559
40 *404:22 *483:61 0.000163352
41 *447:18 *1857:A2 9.94675e-05
42 *447:18 *483:61 0.000296035
43 *447:20 *483:61 0.000164291
44 *447:26 *483:24 8.69994e-05
45 *447:26 *483:61 0.00012868
46 *447:30 *1856:A2 0.000165043
47 *447:30 *483:24 2.11157e-05
48 *482:27 *1858:A2 0.000100733
*RES
1 *1853:X *1858:A2 47.0979 
2 *1853:X *483:18 29.3386 
3 *483:18 *483:24 18.1279 
4 *483:24 *1856:A2 40.2579 
5 *483:24 *483:39 31.3643 
6 *483:39 *483:47 39.5907 
7 *483:47 *1854:B 23 
8 *483:39 *1861:D 23 
9 *483:18 *483:61 23.5964 
10 *483:61 *1859:C 41.0036 
11 *483:61 *1857:A2 43.0543 
*END

*D_NET *484 0.00540819
*CONN
*I *1855:B1 I *D sky130_fd_sc_hd__o21a_2
*I *1854:Y O *D sky130_fd_sc_hd__nor2_2
*CAP
1 *1855:B1 0
2 *1854:Y 0.00192153
3 *484:12 0.000269618
4 *484:6 0.00219115
5 *484:6 *2064:CLK 3.46302e-05
6 *484:6 *2155:A 7.17698e-05
7 *484:6 *677:10 2.64616e-05
8 *484:6 *678:86 0.000258424
9 *484:6 *738:10 2.2065e-05
10 *484:12 *677:10 6.2088e-05
11 *484:12 *738:10 3.9788e-05
12 *2019:D *484:6 1.64354e-05
13 *2064:D *484:6 2.82245e-05
14 *2064:RESET_B *484:6 0.000223926
15 *116:10 *484:6 9.03964e-06
16 *254:14 *484:12 0.00019741
17 *478:18 *484:12 3.56295e-05
*RES
1 *1854:Y *484:6 48.3957 
2 *484:6 *484:12 36.4836 
3 *484:12 *1855:B1 23 
*END

*D_NET *485 0.00232012
*CONN
*I *1857:B1 I *D sky130_fd_sc_hd__o21a_2
*I *1856:Y O *D sky130_fd_sc_hd__a21oi_2
*CAP
1 *1857:B1 0
2 *1856:Y 0
3 *485:10 0.000500073
4 *485:6 0.000500073
5 *485:10 *1856:B1 0.000124439
6 *485:10 *1866:C 8.95742e-05
7 *485:10 *489:18 0.000445349
8 *485:10 *491:23 0.000279936
9 *485:10 *535:106 3.34818e-06
10 *485:10 *667:55 0
11 *485:10 *677:50 0.000377326
12 *1856:A2 *485:10 0
13 *447:26 *485:10 0
14 *483:24 *485:10 0
*RES
1 *1856:Y *485:6 38 
2 *485:6 *485:10 28.1743 
3 *485:10 *1857:B1 23 
*END

*D_NET *486 0.00329853
*CONN
*I *1860:B I *D sky130_fd_sc_hd__nor3_2
*I *1858:Y O *D sky130_fd_sc_hd__a21oi_2
*CAP
1 *1860:B 0
2 *1858:Y 0.000647254
3 *486:12 0.000164714
4 *486:6 0.000811968
5 *486:6 *1858:A1 6.17437e-06
6 *486:6 *619:6 0.000440163
7 *486:6 *667:18 0.000701855
8 *486:12 *668:24 0
9 *486:12 *679:64 3.04661e-05
10 *1711:B1_N *486:6 1.03836e-05
11 *483:18 *486:6 0.000256544
12 *483:24 *486:6 0.000139352
13 *483:39 *486:6 8.96558e-05
*RES
1 *1858:Y *486:6 38.8671 
2 *486:6 *486:12 32.61 
3 *486:12 *1860:B 23 
*END

*D_NET *487 0.00598617
*CONN
*I *1863:A2 I *D sky130_fd_sc_hd__o21a_2
*I *1860:C I *D sky130_fd_sc_hd__nor3_2
*I *1859:X O *D sky130_fd_sc_hd__and3_2
*CAP
1 *1863:A2 0.00036792
2 *1860:C 0
3 *1859:X 0.000245855
4 *487:20 0.000823088
5 *487:8 0.00143686
6 *1863:A2 *495:16 0.000114522
7 *1863:A2 *535:106 9.22317e-05
8 *1863:A2 *667:55 7.79942e-05
9 *487:8 *1859:A 9.13962e-05
10 *487:8 *666:6 0.000182826
11 *487:20 *1866:C 9.00923e-05
12 *487:20 *2022:CLK 4.81627e-05
13 *487:20 *492:26 0.000847515
14 *487:20 *492:43 6.17437e-06
15 *487:20 *667:55 0.0003731
16 *487:20 *679:64 1.23293e-05
17 *1859:C *487:8 2.31797e-05
18 *1866:A *487:20 0.00018282
19 *2022:D *487:20 1.03955e-05
20 *2089:RESET_B *487:8 1.94693e-05
21 *257:10 *1863:A2 0.000181131
22 *447:18 *1863:A2 0.000391403
23 *447:18 *487:20 0.000178782
24 *447:20 *487:20 0.000154147
25 *447:26 *487:20 3.47781e-05
*RES
1 *1859:X *487:8 42.9093 
2 *487:8 *487:20 33.4979 
3 *487:20 *1860:C 23 
4 *487:8 *1863:A2 47.4043 
*END

*D_NET *488 0.0030596
*CONN
*I *1864:B I *D sky130_fd_sc_hd__nor2_2
*I *1862:B I *D sky130_fd_sc_hd__nor2_2
*I *1861:X O *D sky130_fd_sc_hd__and4_2
*CAP
1 *1864:B 0.000250188
2 *1862:B 0.00020515
3 *1861:X 0.000350741
4 *488:10 0.00080608
5 *1862:B *668:12 0.000229171
6 *1862:B *668:31 4.08664e-05
7 *1864:B *490:8 0.000589411
8 *1864:B *640:10 0.000171906
9 *1864:B *668:8 5.80963e-05
10 *1864:B *697:24 0
11 *488:10 *490:8 0.00025307
12 *488:10 *668:24 0
13 *488:10 *697:24 0
14 pcRegister[7] *488:10 3.81467e-05
15 *116:10 *488:10 2.98663e-05
16 *120:10 *1864:B 2.95125e-05
17 *258:12 *1864:B 0
18 *483:47 *488:10 7.39868e-06
*RES
1 *1861:X *488:10 44.6493 
2 *488:10 *1862:B 42.4536 
3 *488:10 *1864:B 46.5964 
*END

*D_NET *489 0.00383645
*CONN
*I *1863:B1 I *D sky130_fd_sc_hd__o21a_2
*I *1862:Y O *D sky130_fd_sc_hd__nor2_2
*CAP
1 *1863:B1 0
2 *1862:Y 0.00118445
3 *489:18 0.000277222
4 *489:12 0.00146167
5 *489:12 *677:31 0
6 *489:12 *677:60 5.24877e-05
7 *489:12 *679:64 0
8 *489:18 *491:23 9.70148e-05
9 *489:18 *535:106 0.000318246
10 *485:10 *489:18 0.000445349
*RES
1 *1862:Y *489:12 48.79 
2 *489:12 *489:18 31.7725 
3 *489:18 *1863:B1 23 
*END

*D_NET *490 0.0022452
*CONN
*I *1867:B I *D sky130_fd_sc_hd__nor3_2
*I *1864:Y O *D sky130_fd_sc_hd__nor2_2
*CAP
1 *1867:B 0.000187242
2 *1864:Y 0.000263942
3 *490:8 0.000451184
4 *1867:B *1867:C 5.47983e-06
5 *1867:B *679:64 7.02407e-05
6 pcRegister[11] *490:8 3.90556e-05
7 pcRegister[7] *490:8 0.000295204
8 *1864:B *490:8 0.000589411
9 *120:10 *490:8 4.9808e-05
10 *121:10 *490:8 4.05615e-05
11 *488:10 *490:8 0.00025307
*RES
1 *1864:Y *490:8 49.0614 
2 *490:8 *1867:B 41.5007 
*END

*D_NET *491 0.00478457
*CONN
*I *1880:B I *D sky130_fd_sc_hd__nand4_2
*I *1882:B I *D sky130_fd_sc_hd__and4_2
*I *1866:C I *D sky130_fd_sc_hd__and3_2
*I *1865:X O *D sky130_fd_sc_hd__and4_2
*CAP
1 *1880:B 0
2 *1882:B 9.92845e-05
3 *1866:C 0.000381255
4 *1865:X 0.000246005
5 *491:44 0.00034993
6 *491:23 0.000807883
7 *491:8 0.000985928
8 *1866:C *1863:A1 0.000159657
9 *1866:C *2140:A 5.95625e-06
10 *1866:C *536:8 2.96322e-05
11 *1866:C *677:50 8.4047e-05
12 *1882:B *535:86 7.01168e-05
13 *491:8 *1865:C 4.2062e-05
14 *491:8 *2021:CLK 0.000103637
15 *491:23 *1863:A1 0.000188679
16 *491:23 *1880:D 3.6921e-05
17 *491:23 *500:10 8.62876e-05
18 *491:23 *535:86 0
19 *491:23 *535:106 0
20 *491:23 *559:16 4.41821e-06
21 *491:44 *1880:D 0.00021491
22 *491:44 *1882:C 2.05465e-05
23 *491:44 *494:10 5.30399e-05
24 *491:44 *559:16 4.34822e-05
25 *491:44 *697:39 0
26 *1866:A *1866:C 0.00010018
27 *255:8 *491:23 0.000114092
28 *485:10 *1866:C 8.95742e-05
29 *485:10 *491:23 0.000279936
30 *487:20 *1866:C 9.00923e-05
31 *489:18 *491:23 9.70148e-05
*RES
1 *1865:X *491:8 41.48 
2 *491:8 *1866:C 45.0221 
3 *491:8 *491:23 9.57 
4 *491:23 *1882:B 39.5743 
5 *491:23 *491:44 35.2109 
6 *491:44 *1880:B 23 
*END

*D_NET *492 0.0161377
*CONN
*I *1870:A2 I *D sky130_fd_sc_hd__a21oi_2
*I *1877:B I *D sky130_fd_sc_hd__and3_2
*I *1868:A2 I *D sky130_fd_sc_hd__o21ai_2
*I *1876:A1 I *D sky130_fd_sc_hd__a21oi_2
*I *1874:A I *D sky130_fd_sc_hd__nand2_2
*I *1869:A2 I *D sky130_fd_sc_hd__a21oi_2
*I *1871:C I *D sky130_fd_sc_hd__and3_2
*I *1867:C I *D sky130_fd_sc_hd__nor3_2
*I *1866:X O *D sky130_fd_sc_hd__and3_2
*CAP
1 *1870:A2 5.29052e-05
2 *1877:B 8.59089e-05
3 *1868:A2 2.34823e-05
4 *1876:A1 0.00015563
5 *1874:A 0
6 *1869:A2 5.90982e-05
7 *1871:C 7.82071e-05
8 *1867:C 3.98637e-05
9 *1866:X 0
10 *492:95 0.000537267
11 *492:87 0.00118703
12 *492:79 0.000975865
13 *492:71 0.000736134
14 *492:60 0.000637246
15 *492:43 0.00108056
16 *492:26 0.000904031
17 *492:4 0.00153325
18 *1867:C *679:64 3.63375e-05
19 *1869:A2 *494:10 5.14826e-05
20 *1869:A2 *610:10 5.58003e-05
21 *1869:A2 *702:24 3.60429e-05
22 *1870:A2 *1870:A1 5.5792e-05
23 *1870:A2 *702:24 0.000189857
24 *1871:C *559:31 2.7237e-05
25 *1876:A1 *1899:A2 5.67058e-05
26 *1877:B *496:18 0.000302339
27 *1877:B *703:10 0.000292195
28 *492:26 *1865:D 7.0399e-05
29 *492:26 *667:12 0.000137651
30 *492:26 *667:55 0.00014196
31 *492:26 *679:64 0.000370396
32 *492:43 *1871:B 0.000137535
33 *492:43 *1873:B 6.72184e-06
34 *492:43 *2240:A 7.77607e-05
35 *492:43 *505:8 1.12487e-05
36 *492:43 *559:37 2.7003e-05
37 *492:43 *666:10 5.76076e-05
38 *492:43 *675:14 7.57281e-06
39 *492:43 *675:24 0
40 *492:43 *697:39 6.10551e-06
41 *492:60 *1870:A1 9.03933e-05
42 *492:60 *1871:B 0.000384214
43 *492:60 *1873:B 3.58158e-05
44 *492:60 *1873:C 5.3304e-05
45 *492:60 *502:21 1.57793e-06
46 *492:60 *504:19 0.000392298
47 *492:60 *686:50 0.000111106
48 *492:71 *1870:A1 2.35118e-06
49 *492:71 *1879:B 0.00016376
50 *492:71 *496:18 0.000134533
51 *492:71 *504:19 0
52 *492:71 *703:10 0.000132311
53 *492:79 *1883:A1 6.06568e-05
54 *492:79 *1883:B1 6.46991e-05
55 *492:79 *703:29 0.0003053
56 *492:87 *496:41 0
57 *492:87 *497:10 0
58 *492:87 *637:10 4.6318e-06
59 *492:87 *679:129 0
60 *492:87 *686:27 0.000118889
61 *492:87 *702:10 0.000151907
62 *492:87 *702:12 0.000181952
63 *492:87 *702:24 3.70187e-05
64 *492:87 *703:29 0.000181919
65 *492:95 *2025:CLK 5.79559e-05
66 *492:95 *543:37 6.07611e-06
67 *492:95 *686:10 0.000199433
68 *1857:A2 *492:43 2.96369e-05
69 *1866:A *492:43 1.5769e-05
70 *1867:B *1867:C 5.47983e-06
71 *1875:C1 *1868:A2 0
72 *1875:C1 *492:79 0.000112739
73 *1875:C1 *492:87 9.4713e-05
74 *2022:D *492:26 0.000154808
75 *2025:D *1876:A1 0.00013961
76 *2025:D *492:95 0.000348811
77 *2030:D *492:43 4.69926e-05
78 *96:10 *492:95 0
79 *169:28 *492:79 9.58714e-05
80 *263:10 *492:79 0.000180218
81 *297:8 *492:43 0.000212387
82 *404:22 *492:43 8.18724e-05
83 *405:8 *492:43 8.06804e-06
84 *482:8 *492:26 4.6318e-06
85 *482:12 *492:26 0.000138098
86 *482:27 *492:26 9.84794e-05
87 *482:27 *492:43 0.00021126
88 *482:34 *492:26 4.97547e-05
89 *483:61 *492:43 0.000140518
90 *487:20 *492:26 0.000847515
91 *487:20 *492:43 6.17437e-06
*RES
1 *1866:X *492:4 23 
2 *492:4 *492:26 49.9686 
3 *492:26 *1867:C 23.8493 
4 *492:4 *492:43 31.1157 
5 *492:43 *1871:C 39.0979 
6 *492:43 *492:60 24.7357 
7 *492:60 *1869:A2 24.5743 
8 *492:60 *492:71 19.0186 
9 *492:71 *492:79 24.5907 
10 *492:79 *492:87 40.6471 
11 *492:87 *492:95 42.2836 
12 *492:95 *1874:A 23 
13 *492:87 *1876:A1 26.9979 
14 *492:79 *1868:A2 23.4971 
15 *492:71 *1877:B 42.0186 
16 *492:60 *1870:A2 25.5479 
*END

*D_NET *493 0.000819988
*CONN
*I *1869:B1 I *D sky130_fd_sc_hd__a21oi_2
*I *1868:Y O *D sky130_fd_sc_hd__o21ai_2
*CAP
1 *1869:B1 4.51044e-05
2 *1868:Y 9.99232e-05
3 *493:8 0.000145028
4 *1869:B1 *1869:A1 0.000233211
5 *1869:B1 *702:24 0.000230726
6 *493:8 *1869:A1 0
7 *493:8 *496:54 6.59959e-05
*RES
1 *1868:Y *493:8 39.9057 
2 *493:8 *1869:B1 40.5271 
*END

*D_NET *494 0.00382428
*CONN
*I *1872:B I *D sky130_fd_sc_hd__nor3_2
*I *1870:Y O *D sky130_fd_sc_hd__a21oi_2
*CAP
1 *1872:B 0
2 *1870:Y 0.000428619
3 *494:20 0.000962345
4 *494:10 0.00139096
5 *494:10 *1880:D 7.42079e-06
6 *494:10 *559:16 8.36198e-05
7 *494:10 *559:50 0.000202029
8 *494:10 *610:10 0.000151211
9 *494:20 *1872:A 1.91457e-05
10 *494:20 *1872:C 5.56279e-05
11 *494:20 *2292:A 1.84917e-05
12 *494:20 *495:26 0.000258534
13 *494:20 *535:86 0.000137365
14 *1869:A2 *494:10 5.14826e-05
15 *1882:A *494:20 4.38068e-06
16 *491:44 *494:10 5.30399e-05
*RES
1 *1870:Y *494:10 45.0221 
2 *494:10 *494:20 29.5 
3 *494:20 *1872:B 23 
*END

*D_NET *495 0.00483365
*CONN
*I *1875:A2 I *D sky130_fd_sc_hd__o211a_2
*I *1872:C I *D sky130_fd_sc_hd__nor3_2
*I *1871:X O *D sky130_fd_sc_hd__and3_2
*CAP
1 *1875:A2 0
2 *1872:C 1.25731e-05
3 *1871:X 0.00056524
4 *495:43 0.000438151
5 *495:26 0.000739814
6 *495:16 0.00085433
7 *1872:C *1872:A 2.48025e-05
8 *495:16 *1863:A1 5.50106e-05
9 *495:16 *500:10 0.000474113
10 *495:16 *535:86 4.92706e-05
11 *495:16 *543:10 9.84794e-05
12 *495:16 *559:31 4.03039e-05
13 *495:26 *1872:A 0.000367073
14 *495:26 *2292:A 5.58003e-05
15 *495:26 *679:89 5.39488e-05
16 *495:43 *543:37 0
17 *495:43 *603:12 5.58975e-06
18 *495:43 *679:112 0
19 *1863:A2 *495:16 0.000114522
20 *1880:A *495:16 0
21 *1882:A *495:26 0.000183733
22 *257:10 *495:16 1.54983e-05
23 *260:8 *495:43 0.000371239
24 *482:34 *495:16 0
25 *494:20 *1872:C 5.56279e-05
26 *494:20 *495:26 0.000258534
*RES
1 *1871:X *495:16 49.4136 
2 *495:16 *495:26 24.3836 
3 *495:26 *1872:C 23.6214 
4 *495:26 *495:43 39.3629 
5 *495:43 *1875:A2 23 
*END

*D_NET *496 0.00907129
*CONN
*I *1877:C I *D sky130_fd_sc_hd__and3_2
*I *1880:C I *D sky130_fd_sc_hd__nand4_2
*I *1882:C I *D sky130_fd_sc_hd__and4_2
*I *1876:A2 I *D sky130_fd_sc_hd__a21oi_2
*I *1874:B I *D sky130_fd_sc_hd__nand2_2
*I *1873:X O *D sky130_fd_sc_hd__and3_2
*CAP
1 *1877:C 0
2 *1880:C 0
3 *1882:C 0.000151476
4 *1876:A2 0
5 *1874:B 0.000758411
6 *1873:X 0.000103115
7 *496:54 0.000790835
8 *496:41 9.71287e-05
9 *496:26 0.00105779
10 *496:24 0.00127604
11 *496:22 0.000478825
12 *496:18 0.000694668
13 *496:10 0.000753398
14 *1874:B *2028:CLK 0.000656116
15 *1874:B *497:10 4.37586e-06
16 *1874:B *543:37 2.18286e-05
17 *1882:C *1880:D 0.00027781
18 *1882:C *500:10 1.14452e-05
19 *1882:C *535:86 4.59144e-05
20 *496:10 *501:20 8.4047e-05
21 *496:18 *1883:B1 0.000183733
22 *496:18 *1891:C 0
23 *496:18 *2200:A 5.66623e-05
24 *496:18 *502:21 4.08664e-05
25 *496:18 *504:19 0
26 *496:18 *675:24 1.94693e-05
27 *496:18 *703:10 1.22803e-05
28 *496:22 *1877:A 2.18409e-05
29 *496:24 *1877:A 2.93845e-05
30 *496:24 *703:6 5.1358e-05
31 *496:41 *637:10 6.07611e-06
32 *496:41 *679:129 6.46205e-05
33 *496:54 *1869:A1 0
34 *496:54 *1880:D 1.13812e-05
35 *496:54 *498:10 4.07715e-05
36 *496:54 *577:10 0
37 *496:54 *702:12 0
38 *1877:B *496:18 0.000302339
39 *2012:RESET_B *496:10 8.4047e-05
40 *2028:D *1874:B 9.95543e-06
41 *2028:D *496:26 8.71694e-05
42 *169:26 *496:54 4.70953e-05
43 *259:12 *496:54 0.00015617
44 *262:10 *496:54 0.000219882
45 *263:10 *496:18 0.000141888
46 *491:44 *1882:C 2.05465e-05
47 *492:71 *496:18 0.000134533
48 *492:87 *496:41 0
49 *493:8 *496:54 6.59959e-05
*RES
1 *1873:X *496:10 39.8229 
2 *496:10 *496:18 41.9729 
3 *496:18 *496:22 15.6214 
4 *496:22 *496:24 5.86214 
5 *496:24 *496:26 2.52714 
6 *496:26 *1874:B 34.9521 
7 *496:26 *496:41 31.9057 
8 *496:41 *1876:A2 23 
9 *496:24 *496:54 27.8843 
10 *496:54 *1882:C 42.0186 
11 *496:54 *1880:C 38 
12 *496:22 *1877:C 23 
*END

*D_NET *497 0.00166984
*CONN
*I *1875:B1 I *D sky130_fd_sc_hd__o211a_2
*I *1874:Y O *D sky130_fd_sc_hd__nand2_2
*CAP
1 *1875:B1 8.31526e-05
2 *1874:Y 0.000540039
3 *497:10 0.000623192
4 *1875:B1 *703:29 1.23353e-05
5 *497:10 *2028:CLK 3.3545e-05
6 *497:10 *543:37 1.78369e-05
7 *497:10 *679:112 0
8 *497:10 *686:27 0
9 *1874:B *497:10 4.37586e-06
10 *1875:C1 *1875:B1 1.8788e-05
11 *2027:D *497:10 4.59522e-05
12 *261:12 *497:10 0.000290624
13 *492:87 *497:10 0
*RES
1 *1874:Y *497:10 46.4514 
2 *497:10 *1875:B1 39.4707 
*END

*D_NET *498 0.00109817
*CONN
*I *1878:B I *D sky130_fd_sc_hd__nor3_2
*I *1876:Y O *D sky130_fd_sc_hd__a21oi_2
*CAP
1 *1878:B 0
2 *1876:Y 0.000203977
3 *498:10 0.000203977
4 *498:10 *679:129 0.00037403
5 *2025:D *498:10 5.3304e-05
6 *262:10 *498:10 0.000222113
7 *496:54 *498:10 4.07715e-05
*RES
1 *1876:Y *498:10 43.6964 
2 *498:10 *1878:B 38 
*END

*D_NET *499 0.0015512
*CONN
*I *1883:A2 I *D sky130_fd_sc_hd__o211a_2
*I *1878:C I *D sky130_fd_sc_hd__nor3_2
*I *1877:X O *D sky130_fd_sc_hd__and3_2
*CAP
1 *1883:A2 0
2 *1878:C 0.000106035
3 *1877:X 9.33346e-05
4 *499:25 7.4286e-05
5 *499:12 0.000341168
6 *499:8 0.000254181
7 *1878:C *559:50 4.21062e-05
8 *499:8 *559:50 0
9 *499:8 *703:10 0.000169683
10 *499:12 *559:50 5.12254e-05
11 *499:12 *704:10 2.93747e-05
12 *499:25 *559:50 9.63815e-05
13 *259:12 *499:8 0
14 *259:12 *499:25 0.000194309
15 *262:10 *1878:C 9.91101e-05
*RES
1 *1877:X *499:8 40.2579 
2 *499:8 *499:12 18.0036 
3 *499:12 *1878:C 25.0507 
4 *499:12 *499:25 32.61 
5 *499:25 *1883:A2 23 
*END

*D_NET *500 0.0024144
*CONN
*I *1880:D I *D sky130_fd_sc_hd__nand4_2
*I *1882:D I *D sky130_fd_sc_hd__and4_2
*I *1879:X O *D sky130_fd_sc_hd__and2_2
*CAP
1 *1880:D 0.00015117
2 *1882:D 0
3 *1879:X 0.000430735
4 *500:10 0.000581905
5 *1880:D *686:37 5.3304e-05
6 *1880:D *704:29 5.58003e-05
7 *500:10 *535:86 2.1199e-05
8 *1882:C *1880:D 0.00027781
9 *1882:C *500:10 1.14452e-05
10 *491:23 *1880:D 3.6921e-05
11 *491:23 *500:10 8.62876e-05
12 *491:44 *1880:D 0.00021491
13 *494:10 *1880:D 7.42079e-06
14 *495:16 *500:10 0.000474113
15 *496:54 *1880:D 1.13812e-05
*RES
1 *1879:X *500:10 44.5871 
2 *500:10 *1882:D 38 
3 *500:10 *1880:D 42.64 
*END

*D_NET *501 0.00415619
*CONN
*I *1887:B1 I *D sky130_fd_sc_hd__a2111oi_2
*I *1881:B I *D sky130_fd_sc_hd__or2_2
*I *1880:Y O *D sky130_fd_sc_hd__nand4_2
*CAP
1 *1887:B1 0.00029899
2 *1881:B 0
3 *1880:Y 0.000811624
4 *501:20 0.000252784
5 *501:14 0.0013634
6 *1887:B1 *2030:CLK 2.71358e-05
7 *1887:B1 *506:10 3.86117e-05
8 *1887:B1 *545:49 2.27764e-05
9 *1887:B1 *545:68 5.62351e-05
10 *501:14 *2030:CLK 2.45549e-06
11 *501:14 *686:37 0.000402337
12 *501:20 *1608:A 6.07611e-06
13 *501:20 *506:10 0
14 *501:20 *675:24 0.000512812
15 *1887:C1 *501:20 3.13952e-05
16 *2012:RESET_B *501:20 3.04736e-05
17 *2030:D *501:14 5.36943e-05
18 *445:45 *1887:B1 2.24869e-05
19 *447:157 *501:14 0.000138859
20 *496:10 *501:20 8.4047e-05
*RES
1 *1880:Y *501:14 34.9107 
2 *501:14 *501:20 36.8357 
3 *501:20 *1881:B 23 
4 *501:14 *1887:B1 27.9714 
*END

*D_NET *502 0.00326203
*CONN
*I *1885:A2 I *D sky130_fd_sc_hd__a21o_2
*I *1883:B1 I *D sky130_fd_sc_hd__o211a_2
*I *1881:X O *D sky130_fd_sc_hd__or2_2
*CAP
1 *1885:A2 0
2 *1883:B1 0.000256862
3 *1881:X 0
4 *502:21 0.000313312
5 *502:4 0.000570174
6 *1883:B1 *1883:A1 9.00315e-05
7 *1883:B1 *2208:A 0.000222785
8 *1883:B1 *703:29 0.000362509
9 *502:21 *1873:B 0.000504505
10 *502:21 *504:19 0.000596617
11 *502:21 *675:24 4.39592e-05
12 *263:10 *1883:B1 1.03955e-05
13 *492:60 *502:21 1.57793e-06
14 *492:79 *1883:B1 6.46991e-05
15 *496:18 *1883:B1 0.000183733
16 *496:18 *502:21 4.08664e-05
*RES
1 *1881:X *502:4 23 
2 *502:4 *1883:B1 30.6643 
3 *502:4 *502:21 38.8657 
4 *502:21 *1885:A2 23 
*END

*D_NET *503 0.000417312
*CONN
*I *1884:C I *D sky130_fd_sc_hd__and3_2
*I *1882:X O *D sky130_fd_sc_hd__and4_2
*CAP
1 *1884:C 0.000129302
2 *1882:X 0.000129302
3 *1884:C *535:86 1.76557e-05
4 *1884:C *559:16 5.67058e-05
5 *1884:C *559:31 8.43466e-05
*RES
1 *1882:X *1884:C 48.0507 
*END

*D_NET *504 0.00330398
*CONN
*I *1891:C I *D sky130_fd_sc_hd__and3_2
*I *1889:A2 I *D sky130_fd_sc_hd__o21a_2
*I *1885:B1 I *D sky130_fd_sc_hd__a21o_2
*I *1884:X O *D sky130_fd_sc_hd__and3_2
*CAP
1 *1891:C 0.000113883
2 *1889:A2 3.09722e-05
3 *1885:B1 0
4 *1884:X 8.07086e-05
5 *504:19 0.000828839
6 *504:6 0.000764693
7 *1889:A2 *1889:A1 2.93747e-05
8 *1891:C *2200:A 0
9 *1891:C *560:19 0
10 *1891:C *592:8 2.5415e-05
11 *504:6 *535:76 9.67816e-05
12 *504:6 *559:31 5.3304e-05
13 *504:19 *1608:A 0
14 *504:19 *1870:A1 1.07299e-05
15 *504:19 *535:76 4.98398e-05
16 *504:19 *560:19 0
17 *504:19 *675:24 1.51707e-05
18 *263:10 *504:19 4.34173e-05
19 *447:12 *504:6 8.77041e-05
20 *447:12 *504:19 8.42292e-05
21 *492:60 *504:19 0.000392298
22 *492:71 *504:19 0
23 *496:18 *1891:C 0
24 *496:18 *504:19 0
25 *502:21 *504:19 0.000596617
*RES
1 *1884:X *504:6 25.0507 
2 *504:6 *1885:B1 23 
3 *504:6 *504:19 30.8257 
4 *504:19 *1889:A2 38.6214 
5 *504:19 *1891:C 39.9057 
*END

*D_NET *505 0.00278484
*CONN
*I *1886:B I *D sky130_fd_sc_hd__nor2_2
*I *1885:X O *D sky130_fd_sc_hd__a21o_2
*CAP
1 *1886:B 0.000465671
2 *1885:X 0.000185662
3 *505:8 0.000651333
4 *1886:B *1857:A1 0.000181125
5 *1886:B *679:79 6.17437e-06
6 *1886:B *681:94 4.79641e-05
7 *505:8 *559:31 0.000209128
8 *1857:A2 *1886:B 1.57571e-05
9 *2030:D *505:8 0.000313046
10 *264:10 *1886:B 0.000636938
11 *447:18 *505:8 6.07929e-05
12 *492:43 *505:8 1.12487e-05
*RES
1 *1885:X *505:8 42.7229 
2 *505:8 *1886:B 49.1443 
*END

*D_NET *506 0.00227939
*CONN
*I *1888:B I *D sky130_fd_sc_hd__nor2_2
*I *2264:A I *D sky130_fd_sc_hd__buf_1
*I *1887:Y O *D sky130_fd_sc_hd__a2111oi_2
*CAP
1 *1888:B 0.000376365
2 *2264:A 0
3 *1887:Y 0.000377024
4 *506:10 0.00075339
5 *1888:B *1608:A 2.29895e-05
6 *1888:B *1888:A 5.54148e-05
7 *1888:B *2029:CLK 0
8 *1888:B *2193:A 1.32314e-05
9 *1888:B *507:8 3.5664e-05
10 *1888:B *672:10 0.000143873
11 *506:10 *1608:A 6.88552e-05
12 *506:10 *2029:CLK 0
13 *506:10 *545:49 2.95526e-05
14 *506:10 *545:86 0
15 *1887:A2 *506:10 0
16 *1887:B1 *506:10 3.86117e-05
17 *1887:C1 *506:10 3.50862e-06
18 *2012:RESET_B *506:10 1.10864e-05
19 *324:10 *506:10 0.000349823
20 *501:20 *506:10 0
*RES
1 *1887:Y *506:10 47.2179 
2 *506:10 *2264:A 38 
3 *506:10 *1888:B 46.12 
*END

*D_NET *507 0.00122209
*CONN
*I *1889:B1 I *D sky130_fd_sc_hd__o21a_2
*I *1888:Y O *D sky130_fd_sc_hd__nor2_2
*CAP
1 *1889:B1 0.000258181
2 *1888:Y 7.97336e-05
3 *507:8 0.000337915
4 *1889:B1 *1889:A1 0.000113903
5 *1888:B *507:8 3.5664e-05
6 *265:6 *1889:B1 0.000396689
*RES
1 *1888:Y *507:8 39.5536 
2 *507:8 *1889:B1 43.8829 
*END

*D_NET *508 0.0014193
*CONN
*I *1892:B I *D sky130_fd_sc_hd__nor3_2
*I *1890:Y O *D sky130_fd_sc_hd__nor2_2
*CAP
1 *1892:B 0
2 *1890:Y 0.000597938
3 *508:12 0.000597938
4 *508:12 *1892:A 0
5 *508:12 *2033:CLK 7.28721e-05
6 *508:12 *509:21 0
7 *508:12 *560:44 3.70094e-05
8 *508:12 *561:37 4.49946e-05
9 *508:12 *563:41 3.5664e-05
10 *2033:D *508:12 3.24476e-06
11 *266:10 *508:12 2.96369e-05
*RES
1 *1890:Y *508:12 46.2236 
2 *508:12 *1892:B 38 
*END

*D_NET *509 0.00391688
*CONN
*I *1895:A2 I *D sky130_fd_sc_hd__a21oi_2
*I *1894:A2 I *D sky130_fd_sc_hd__o21ba_2
*I *1892:C I *D sky130_fd_sc_hd__nor3_2
*I *1891:X O *D sky130_fd_sc_hd__and3_2
*CAP
1 *1895:A2 0
2 *1894:A2 1.80505e-05
3 *1892:C 5.13614e-05
4 *1891:X 0.000144578
5 *509:40 0.000720295
6 *509:21 0.00113102
7 *509:10 0.000588615
8 *1892:C *560:44 9.67842e-05
9 *1894:A2 *1893:A1 5.50049e-05
10 *1894:A2 *563:24 2.93747e-05
11 *509:10 *1888:A 3.22879e-05
12 *509:10 *561:37 8.26569e-05
13 *509:21 *561:37 6.08751e-05
14 *509:21 *562:10 0
15 *509:21 *562:40 0
16 *509:21 *563:41 0.000380342
17 *509:21 *688:47 0
18 *509:40 *1895:A1 0.000140259
19 *509:40 *2034:CLK 8.85386e-05
20 *509:40 *511:10 5.3304e-05
21 *509:40 *515:33 5.50049e-05
22 *509:40 *563:12 3.04021e-05
23 *509:40 *563:41 6.25829e-05
24 *509:40 *682:42 6.2239e-05
25 *2034:D *509:40 3.32987e-05
26 *508:12 *509:21 0
*RES
1 *1891:X *509:10 40.8793 
2 *509:10 *1892:C 39.0979 
3 *509:10 *509:21 8.24429 
4 *509:21 *1894:A2 38.6214 
5 *509:21 *509:40 27.4493 
6 *509:40 *1895:A2 23 
*END

*D_NET *510 0.000812443
*CONN
*I *1894:B1_N I *D sky130_fd_sc_hd__o21ba_2
*I *1893:X O *D sky130_fd_sc_hd__a31o_2
*CAP
1 *1894:B1_N 0
2 *1893:X 0.000208585
3 *510:6 0.000208585
4 *510:6 *1893:A1 0.000148201
5 *510:6 *1893:A3 0.00014196
6 *510:6 *563:12 7.53384e-06
7 *468:45 *510:6 9.75779e-05
*RES
1 *1893:X *510:6 28.3857 
2 *510:6 *1894:B1_N 23 
*END

*D_NET *511 0.00056186
*CONN
*I *1897:B I *D sky130_fd_sc_hd__nor3_2
*I *1895:Y O *D sky130_fd_sc_hd__a21oi_2
*CAP
1 *1897:B 0
2 *1895:Y 0.000113425
3 *511:10 0.000113425
4 *511:10 *2256:A 4.21594e-06
5 *511:10 *512:38 2.08324e-05
6 *511:10 *512:51 8.41115e-05
7 *511:10 *562:69 0.000166522
8 *511:10 *682:44 6.02277e-06
9 *509:40 *511:10 5.3304e-05
*RES
1 *1895:Y *511:10 41.2314 
2 *511:10 *1897:B 38 
*END

*D_NET *512 0.00548771
*CONN
*I *1900:A2 I *D sky130_fd_sc_hd__a21oi_2
*I *1903:D I *D sky130_fd_sc_hd__and4_2
*I *1901:C I *D sky130_fd_sc_hd__and3_2
*I *1897:C I *D sky130_fd_sc_hd__nor3_2
*I *1898:A2 I *D sky130_fd_sc_hd__a21oi_2
*I *1899:A2 I *D sky130_fd_sc_hd__o21a_2
*I *1896:X O *D sky130_fd_sc_hd__and4_2
*CAP
1 *1900:A2 0
2 *1903:D 0
3 *1901:C 0.000283644
4 *1897:C 0
5 *1898:A2 9.73983e-05
6 *1899:A2 0.000110379
7 *1896:X 3.71978e-05
8 *512:51 0.000778264
9 *512:38 0.000799291
10 *512:14 0.000419236
11 *512:8 0.000608896
12 *512:6 0.000129964
13 *1898:A2 *1898:A1 9.84794e-05
14 *1898:A2 *513:10 5.3304e-05
15 *1898:A2 *560:44 4.21378e-05
16 *1899:A2 *1898:B1 4.6318e-06
17 *1899:A2 *513:10 0.000141879
18 *1899:A2 *637:10 5.56306e-05
19 *1901:C *1903:A 0.000100069
20 *1901:C *1903:B 7.13215e-05
21 *1901:C *1903:C 1.59071e-05
22 *1901:C *515:33 9.03364e-06
23 *1901:C *569:31 2.64616e-05
24 *512:6 *562:31 8.85324e-05
25 *512:8 *562:31 0.000100257
26 *512:14 *1898:B1 0.000109388
27 *512:14 *1900:B1 0.000182832
28 *512:14 *514:10 0.000226306
29 *512:14 *562:31 4.95081e-05
30 *512:38 *1898:B1 0
31 *512:38 *2256:A 0
32 *512:38 *562:40 0
33 *512:38 *564:8 7.03869e-05
34 *512:38 *683:46 0
35 *512:51 *2034:CLK 0.000401824
36 *512:51 *515:33 0.000118843
37 *512:51 *562:69 1.377e-05
38 *512:51 *683:46 0
39 *1876:A1 *1899:A2 5.67058e-05
40 *269:8 *1899:A2 7.75329e-06
41 *269:8 *512:14 7.35388e-05
42 *511:10 *512:38 2.08324e-05
43 *511:10 *512:51 8.41115e-05
*RES
1 *1896:X *512:6 24.0979 
2 *512:6 *512:8 2.05071 
3 *512:8 *512:14 21.3179 
4 *512:14 *1899:A2 40.8793 
5 *512:14 *1898:A2 40.0507 
6 *512:8 *512:38 20.7793 
7 *512:38 *1897:C 38 
8 *512:38 *512:51 23.5757 
9 *512:51 *1901:C 26.9564 
10 *512:51 *1903:D 23 
11 *512:6 *1900:A2 23 
*END

*D_NET *513 0.000571179
*CONN
*I *1899:B1 I *D sky130_fd_sc_hd__o21a_2
*I *1898:Y O *D sky130_fd_sc_hd__a21oi_2
*CAP
1 *1899:B1 0
2 *1898:Y 0.000135025
3 *513:10 0.000135025
4 *513:10 *1898:A1 2.32101e-05
5 *513:10 *2025:CLK 1.44001e-05
6 *513:10 *637:10 1.02387e-05
7 *1898:A2 *513:10 5.3304e-05
8 *1899:A2 *513:10 0.000141879
9 *269:8 *513:10 5.80963e-05
*RES
1 *1898:Y *513:10 41.3557 
2 *513:10 *1899:B1 38 
*END

*D_NET *514 0.00170214
*CONN
*I *1902:B I *D sky130_fd_sc_hd__nor3_2
*I *1900:Y O *D sky130_fd_sc_hd__a21oi_2
*CAP
1 *1902:B 0.000191096
2 *1900:Y 0.000386985
3 *514:10 0.000578081
4 *1902:B *2035:CLK 6.17437e-06
5 *1902:B *564:46 0.000116679
6 *514:10 *1900:B1 2.32004e-05
7 *514:10 *2025:CLK 3.48454e-05
8 *514:10 *2199:A 4.83778e-05
9 *514:10 *562:31 9.03954e-05
10 *512:14 *514:10 0.000226306
*RES
1 *1900:Y *514:10 45.7679 
2 *514:10 *1902:B 42.1429 
*END

*D_NET *515 0.0032802
*CONN
*I *1905:A2 I *D sky130_fd_sc_hd__o21a_2
*I *1902:C I *D sky130_fd_sc_hd__nor3_2
*I *1901:X O *D sky130_fd_sc_hd__and3_2
*CAP
1 *1905:A2 0
2 *1902:C 3.60019e-05
3 *1901:X 0
4 *515:33 0.000443338
5 *515:16 0.00053887
6 *515:4 0.000946206
7 *515:16 *2199:A 4.82745e-05
8 *515:16 *563:24 0
9 *515:16 *564:48 9.22284e-05
10 *515:16 *569:27 0.000108681
11 *515:16 *683:33 6.23248e-06
12 *515:33 *1903:C 0.000233367
13 *515:33 *2034:CLK 2.80394e-05
14 *515:33 *516:10 0.00020351
15 *515:33 *517:10 2.81425e-05
16 *515:33 *563:24 0.000231039
17 *515:33 *567:10 1.13812e-05
18 *515:33 *683:46 0
19 *1901:C *515:33 9.03364e-06
20 *270:10 *1902:C 7.51453e-06
21 *270:10 *515:16 0.00013449
22 *509:40 *515:33 5.50049e-05
23 *512:51 *515:33 0.000118843
*RES
1 *1901:X *515:4 23 
2 *515:4 *515:16 36.6195 
3 *515:16 *1902:C 38.6214 
4 *515:4 *515:33 40.6057 
5 *515:33 *1905:A2 23 
*END

*D_NET *516 0.00830417
*CONN
*I *1904:B I *D sky130_fd_sc_hd__nor2_2
*I *1908:A2 I *D sky130_fd_sc_hd__a21oi_2
*I *1907:A2 I *D sky130_fd_sc_hd__o21a_2
*I *1906:A2 I *D sky130_fd_sc_hd__a21oi_2
*I *1909:C I *D sky130_fd_sc_hd__and3_2
*I *1911:D I *D sky130_fd_sc_hd__and4_2
*I *1903:X O *D sky130_fd_sc_hd__and4_2
*CAP
1 *1904:B 0
2 *1908:A2 9.15679e-05
3 *1907:A2 0.000257085
4 *1906:A2 0.000251474
5 *1909:C 0
6 *1911:D 0
7 *1903:X 0.000197083
8 *516:42 0.00103073
9 *516:36 0.00081935
10 *516:27 0.000381092
11 *516:18 0.000387876
12 *516:14 0.000287461
13 *516:10 0.000272146
14 *1906:A2 *1906:A1 1.21972e-05
15 *1906:A2 *518:10 0.000158624
16 *1906:A2 *520:31 5.56356e-05
17 *1906:A2 *638:12 0.00032643
18 *1906:A2 *682:68 0.000139352
19 *1907:A2 *518:10 0.000202164
20 *1907:A2 *638:12 0.000457912
21 *1908:A2 *1908:A1 5.15096e-05
22 *1908:A2 *2279:A 0.000140259
23 *1908:A2 *521:31 4.18957e-05
24 *1908:A2 *570:16 7.15126e-05
25 *1908:A2 *670:10 6.22448e-06
26 *516:10 *2034:CLK 0.000232049
27 *516:10 *567:10 1.0092e-05
28 *516:18 *1911:C 1.14452e-05
29 *516:18 *591:8 0
30 *516:18 *683:46 5.75756e-06
31 *516:18 *683:57 0.000176823
32 *516:27 *1911:B 0
33 *516:27 *1911:C 7.48331e-05
34 *516:27 *521:8 0.000154385
35 *516:27 *591:8 0
36 *516:27 *591:25 0.000357939
37 *516:36 *1908:A1 0.000111852
38 *516:36 *521:8 0.000138768
39 *516:36 *521:31 6.32688e-05
40 *516:36 *591:25 5.01986e-05
41 *516:36 *591:42 8.28736e-05
42 *516:36 *591:53 0.000192077
43 *516:42 *570:16 0.000467221
44 *2041:D *516:42 0.000141648
45 *271:6 *516:14 0.000189848
46 *515:33 *516:10 0.00020351
*RES
1 *1903:X *516:10 43.1371 
2 *516:10 *516:14 17.0507 
3 *516:14 *516:18 20.075 
4 *516:18 *1911:D 38 
5 *516:18 *516:27 5.77929 
6 *516:27 *1909:C 38 
7 *516:27 *516:36 5.77929 
8 *516:36 *516:42 37.2914 
9 *516:42 *1906:A2 44.9186 
10 *516:42 *1907:A2 44.4836 
11 *516:36 *1908:A2 40.7757 
12 *516:14 *1904:B 23 
*END

*D_NET *517 0.000887903
*CONN
*I *1905:B1 I *D sky130_fd_sc_hd__o21a_2
*I *1904:Y O *D sky130_fd_sc_hd__nor2_2
*CAP
1 *1905:B1 0
2 *1904:Y 0.000270568
3 *517:10 0.000270568
4 *517:10 *594:10 2.35118e-06
5 *271:6 *517:10 0.000316273
6 *515:33 *517:10 2.81425e-05
*RES
1 *1904:Y *517:10 42.3293 
2 *517:10 *1905:B1 38 
*END

*D_NET *518 0.00209494
*CONN
*I *1907:B1 I *D sky130_fd_sc_hd__o21a_2
*I *1906:Y O *D sky130_fd_sc_hd__a21oi_2
*CAP
1 *1907:B1 0
2 *1906:Y 0
3 *518:10 0.00048093
4 *518:6 0.00048093
5 *518:10 *520:31 0.00042645
6 *518:10 *638:12 2.96901e-05
7 *518:10 *657:10 0.000127002
8 *518:10 *682:68 8.79696e-05
9 *1906:A2 *518:10 0.000158624
10 *1907:A2 *518:10 0.000202164
11 *272:12 *518:10 0.000101186
*RES
1 *1906:Y *518:6 38 
2 *518:6 *518:10 27.1179 
3 *518:10 *1907:B1 23 
*END

*D_NET *519 0.00322034
*CONN
*I *1910:B I *D sky130_fd_sc_hd__nor3_2
*I *1908:Y O *D sky130_fd_sc_hd__a21oi_2
*CAP
1 *1910:B 0.000363748
2 *1908:Y 0.000628699
3 *519:8 0.000992448
4 *1910:B *1911:A 0
5 *1910:B *520:18 0.000521551
6 *1910:B *569:41 0.00025214
7 *1910:B *614:25 0
8 *519:8 *2279:A 7.46384e-05
9 *519:8 *570:16 0.000139646
10 *105:8 *1910:B 1.3112e-05
11 *108:10 *1910:B 0.000234357
*RES
1 *1908:Y *519:8 46.2443 
2 *519:8 *1910:B 48.7093 
*END

*D_NET *520 0.00708272
*CONN
*I *1913:A2 I *D sky130_fd_sc_hd__o21a_2
*I *1910:C I *D sky130_fd_sc_hd__nor3_2
*I *1909:X O *D sky130_fd_sc_hd__and3_2
*CAP
1 *1913:A2 0.000783272
2 *1910:C 0
3 *1909:X 0
4 *520:31 0.00129553
5 *520:18 0.000913796
6 *520:4 0.00142606
7 *1913:A2 *570:16 0.000121334
8 *1913:A2 *625:16 0.000180224
9 *1913:A2 *625:77 0.000218329
10 *1913:A2 *625:90 5.69371e-05
11 *520:18 *1906:A1 7.15126e-05
12 *520:18 *1909:B 5.3304e-05
13 *520:18 *602:25 1.57571e-05
14 *520:18 *602:35 5.91105e-05
15 *520:18 *614:8 2.85597e-05
16 *520:31 *1906:A1 0.000130449
17 *1906:A2 *520:31 5.56356e-05
18 *1910:B *520:18 0.000521551
19 *105:8 *520:18 0.000265431
20 *272:12 *520:31 0.0004287
21 *274:20 *520:18 3.07818e-05
22 *518:10 *520:31 0.00042645
*RES
1 *1909:X *520:4 23 
2 *520:4 *520:18 48.125 
3 *520:18 *1910:C 23 
4 *520:4 *520:31 40.6886 
5 *520:31 *1913:A2 34.6 
*END

*D_NET *521 0.00882334
*CONN
*I *1930:A1 I *D sky130_fd_sc_hd__a31o_2
*I *1929:B I *D sky130_fd_sc_hd__nand4_2
*I *2154:A I *D sky130_fd_sc_hd__clkdlybuf4s25_1
*I *1911:X O *D sky130_fd_sc_hd__and4_2
*CAP
1 *1930:A1 0.000344336
2 *1929:B 2.32701e-05
3 *2154:A 0.000130035
4 *1911:X 0.00028543
5 *521:48 0.00135926
6 *521:31 0.00168731
7 *521:8 0.00106458
8 *1929:B *527:8 5.3304e-05
9 *1929:B *655:8 5.3304e-05
10 *1930:A1 *527:48 9.73761e-05
11 *1930:A1 *532:10 5.58003e-05
12 *1930:A1 *549:55 0.00015275
13 *1930:A1 *661:42 4.86526e-05
14 *1930:A1 *670:87 0
15 *2154:A *2275:A 5.50049e-05
16 *2154:A *606:10 6.17437e-06
17 *521:8 *1911:B 0.000117121
18 *521:8 *2206:A 0.000108131
19 *521:8 *602:21 4.95442e-05
20 *521:8 *670:29 0
21 *521:31 *2279:A 9.64237e-05
22 *521:31 *527:8 0.000137651
23 *521:31 *533:8 1.13812e-05
24 *521:31 *547:65 2.33117e-05
25 *521:31 *606:10 0.000135557
26 *521:31 *625:39 0.000360463
27 *521:31 *636:36 0.000267173
28 *521:31 *636:44 0.000138427
29 *521:31 *647:8 0
30 *521:31 *647:38 2.20111e-05
31 *521:31 *657:10 5.93334e-05
32 *521:31 *658:29 0
33 *521:31 *670:29 0
34 *521:48 *533:8 5.19959e-05
35 *521:48 *655:8 0.000475928
36 *521:48 *657:10 5.91105e-05
37 *521:48 *685:72 0.000759232
38 *1908:A2 *521:31 4.18957e-05
39 *2121:SET_B *1930:A1 1.11825e-05
40 *124:12 *521:31 0.000124448
41 *516:27 *521:8 0.000154385
42 *516:36 *521:8 0.000138768
43 *516:36 *521:31 6.32688e-05
*RES
1 *1911:X *521:8 45.8921 
2 *521:8 *2154:A 40.0507 
3 *521:8 *521:31 46.2814 
4 *521:31 *1929:B 38.6214 
5 *521:31 *521:48 45.2871 
6 *521:48 *1930:A1 44.4007 
*END

*D_NET *522 0.0040071
*CONN
*I *1913:B1 I *D sky130_fd_sc_hd__o21a_2
*I *1912:Y O *D sky130_fd_sc_hd__nor2_2
*CAP
1 *1913:B1 0
2 *1912:Y 0.00102439
3 *522:16 0.000381825
4 *522:10 0.00140622
5 *522:10 *2234:A 2.32101e-05
6 *522:10 *535:313 2.38288e-05
7 *522:10 *548:70 7.24365e-05
8 *522:10 *591:14 6.17437e-06
9 *522:10 *638:8 1.73399e-05
10 *522:16 *2192:A 2.31116e-05
11 *522:16 *535:313 6.01596e-05
12 *522:16 *549:28 0.000193769
13 *522:16 *623:10 0.000179685
14 *522:16 *685:51 1.69668e-05
15 *522:16 *740:25 1.11421e-05
16 *522:16 *740:44 3.08233e-05
17 *522:16 *747:16 0.000222123
18 *156:8 *522:16 0.000141888
19 *274:8 *522:16 0.000172008
20 *457:10 *522:16 0
*RES
1 *1912:Y *522:10 37.1271 
2 *522:10 *522:16 42.1179 
3 *522:16 *1913:B1 23 
*END

*D_NET *523 0.00246231
*CONN
*I *1915:B1 I *D sky130_fd_sc_hd__o21a_2
*I *1914:Y O *D sky130_fd_sc_hd__a21oi_2
*CAP
1 *1915:B1 0.000290557
2 *1914:Y 0.000145177
3 *523:8 0.000435734
4 *1915:B1 *625:16 0.000133316
5 *1915:B1 *638:12 0
6 *1915:B1 *670:42 0.000264961
7 *523:8 *528:18 0.000139346
8 *523:8 *625:16 1.72202e-05
9 *523:8 *625:20 0.000349873
10 *523:8 *670:36 0.000519462
11 *275:8 *1915:B1 0.000166666
*RES
1 *1914:Y *523:8 43.8621 
2 *523:8 *1915:B1 45.8921 
*END

*D_NET *524 0.00233492
*CONN
*I *1918:A I *D sky130_fd_sc_hd__nor2_2
*I *1916:Y O *D sky130_fd_sc_hd__a21oi_2
*CAP
1 *1918:A 0.000337457
2 *1916:Y 0.000128699
3 *524:8 0.000466156
4 *1918:A *1918:B 1.14452e-05
5 *1918:A *1931:C 2.33476e-05
6 *1918:A *547:52 3.92407e-05
7 *1918:A *547:65 0.000513251
8 *1918:A *547:71 1.43955e-05
9 *1918:A *625:39 8.53831e-05
10 *1918:A *625:58 7.66914e-06
11 *1918:A *647:38 0.000119531
12 *524:8 *1916:A1 5.3304e-05
13 *524:8 *547:71 9.79925e-05
14 *524:8 *661:27 5.09429e-05
15 *524:8 *670:125 4.04146e-05
16 *278:18 *524:8 0.000345687
*RES
1 *1916:Y *524:8 41.9564 
2 *524:8 *1918:A 46.2443 
*END

*D_NET *525 0.00318217
*CONN
*I *1918:B I *D sky130_fd_sc_hd__nor2_2
*I *1917:X O *D sky130_fd_sc_hd__a31o_2
*CAP
1 *1918:B 9.49107e-05
2 *1917:X 0.000797887
3 *525:12 0.000892798
4 *1918:B *547:52 1.90167e-05
5 *1918:B *625:39 8.11441e-05
6 *525:12 *1914:B1 0.000700862
7 *525:12 *527:83 5.58152e-06
8 *525:12 *670:70 2.26406e-05
9 *525:12 *688:68 0.000369837
10 *1918:A *1918:B 1.14452e-05
11 *124:12 *525:12 6.53043e-05
12 *126:12 *525:12 0
13 *276:8 *1918:B 0.000120739
*RES
1 *1917:X *525:12 48.6096 
2 *525:12 *1918:B 48.4339 
*END

*D_NET *526 0.00369711
*CONN
*I *1922:B I *D sky130_fd_sc_hd__and3_2
*I *1919:X O *D sky130_fd_sc_hd__a31o_2
*CAP
1 *1922:B 0
2 *1919:X 0.00100017
3 *526:20 0.000128024
4 *526:14 0.00112819
5 *526:14 *2246:A 5.56279e-05
6 *526:14 *647:38 0.00031959
7 *526:14 *658:14 0.000188927
8 *526:14 *660:44 0.000323463
9 *526:14 *664:8 0.000297215
10 *526:14 *670:115 6.4695e-05
11 *526:20 *528:32 3.07272e-05
12 *526:20 *582:12 6.60124e-05
13 *1:8 *526:14 5.77433e-05
14 *277:18 *526:20 3.673e-05
*RES
1 *1919:X *526:14 42.4093 
2 *526:14 *526:20 33.3143 
3 *526:20 *1922:B 23 
*END

*D_NET *527 0.0083016
*CONN
*I *1921:B I *D sky130_fd_sc_hd__nand2_2
*I *1927:A2 I *D sky130_fd_sc_hd__a31o_2
*I *1930:A2 I *D sky130_fd_sc_hd__a31o_2
*I *1925:A3 I *D sky130_fd_sc_hd__a31o_2
*I *1923:A3 I *D sky130_fd_sc_hd__a31o_2
*I *1929:C I *D sky130_fd_sc_hd__nand4_2
*I *1920:X O *D sky130_fd_sc_hd__and3_2
*CAP
1 *1921:B 0
2 *1927:A2 0
3 *1930:A2 0
4 *1925:A3 5.77226e-05
5 *1923:A3 0
6 *1929:C 1.56721e-05
7 *1920:X 0.000142584
8 *527:83 0.000485531
9 *527:70 9.74632e-05
10 *527:48 0.000584309
11 *527:38 0.000865268
12 *527:30 0.000575876
13 *527:23 0.000533193
14 *527:17 0.0010872
15 *527:8 0.000366461
16 *1925:A3 *1925:A1 5.79559e-05
17 *1925:A3 *549:68 7.87243e-05
18 *527:8 *636:34 6.17437e-06
19 *527:8 *636:36 9.16459e-05
20 *527:8 *655:8 0.000126136
21 *527:17 *636:34 8.56254e-05
22 *527:17 *655:8 0.0001262
23 *527:17 *685:72 0.000129969
24 *527:23 *529:10 0.000153802
25 *527:23 *660:52 0.000177741
26 *527:23 *661:27 1.63405e-05
27 *527:23 *688:87 0.000380316
28 *527:30 *1923:A1 0.000183544
29 *527:30 *664:8 0.000123426
30 *527:30 *670:100 0.000492272
31 *527:48 *2121:D 7.34394e-06
32 *527:48 *549:55 0.000163284
33 *527:48 *549:68 6.46225e-05
34 *527:48 *651:18 4.70939e-05
35 *527:70 *670:87 1.13812e-05
36 *527:70 *670:100 8.57485e-05
37 *527:83 *2250:A 0.00010018
38 *527:83 *670:70 0
39 *527:83 *685:72 8.87328e-05
40 *527:83 *688:87 0
41 *1924:A1 *527:23 8.16924e-05
42 *1929:B *527:8 5.3304e-05
43 *1930:A1 *527:48 9.73761e-05
44 *2121:SET_B *527:38 1.13812e-05
45 *2121:SET_B *527:48 0.000213562
46 *2122:SET_B *527:30 4.53894e-05
47 *2122:SET_B *527:38 2.37428e-05
48 *278:10 *527:23 2.2385e-05
49 *360:39 *527:48 0
50 *521:31 *527:8 0.000137651
51 *525:12 *527:83 5.58152e-06
*RES
1 *1920:X *527:8 26.9771 
2 *527:8 *1929:C 23.4971 
3 *527:8 *527:17 4.43286 
4 *527:17 *527:23 38.2443 
5 *527:23 *1923:A3 23 
6 *527:23 *527:30 5.86214 
7 *527:30 *527:38 20.1786 
8 *527:38 *527:48 38.9486 
9 *527:48 *1925:A3 39.5743 
10 *527:38 *1930:A2 38 
11 *527:30 *527:70 31.5536 
12 *527:70 *1927:A2 23 
13 *527:17 *527:83 38.4307 
14 *527:83 *1921:B 23 
*END

*D_NET *528 0.00755512
*CONN
*I *1924:A2 I *D sky130_fd_sc_hd__a21oi_2
*I *1922:C I *D sky130_fd_sc_hd__and3_2
*I *1921:Y O *D sky130_fd_sc_hd__nand2_2
*CAP
1 *1924:A2 6.57138e-06
2 *1922:C 0
3 *1921:Y 0.000396476
4 *528:32 0.0016823
5 *528:20 0.00191162
6 *528:18 0.000619228
7 *1924:A2 *531:12 1.28035e-05
8 *1924:A2 *688:95 2.33476e-05
9 *528:18 *1917:A1 2.47815e-05
10 *528:18 *609:10 0.000321554
11 *528:18 *625:16 0.000110598
12 *528:18 *636:20 9.92896e-05
13 *528:18 *636:34 0.000316988
14 *528:18 *638:12 3.45354e-05
15 *528:18 *670:36 7.06812e-05
16 *528:18 *670:51 0.000203083
17 *528:20 *531:12 0.000366129
18 *528:20 *609:10 1.30556e-05
19 *528:20 *688:95 2.33476e-05
20 *528:32 *625:58 6.91438e-05
21 *528:32 *651:18 9.71572e-05
22 *528:32 *658:14 0
23 pcRegister[31] *528:32 3.18407e-06
24 red[1] *528:32 0.000268929
25 *1924:A1 *528:20 7.19441e-05
26 *169:79 *528:18 1.5037e-05
27 *169:79 *528:20 0.000217916
28 *169:91 *528:32 2.93335e-05
29 *277:8 *528:32 1.05235e-05
30 *279:20 *528:32 0.000365483
31 *523:8 *528:18 0.000139346
32 *526:20 *528:32 3.07272e-05
*RES
1 *1921:Y *528:18 49.7968 
2 *528:18 *528:20 5.77929 
3 *528:20 *528:32 36.9273 
4 *528:32 *1922:C 23 
5 *528:20 *1924:A2 38.3211 
*END

*D_NET *529 0.000749141
*CONN
*I *1924:B1 I *D sky130_fd_sc_hd__a21oi_2
*I *1923:X O *D sky130_fd_sc_hd__a31o_2
*CAP
1 *1924:B1 0
2 *1923:X 0.000182572
3 *529:10 0.000182572
4 *529:10 *1923:A1 2.85501e-05
5 *529:10 *660:52 3.21898e-05
6 *529:10 *661:27 5.78554e-05
7 *529:10 *664:8 5.58003e-05
8 *2122:SET_B *529:10 5.58003e-05
9 *527:23 *529:10 0.000153802
*RES
1 *1923:X *529:10 41.9357 
2 *529:10 *1924:B1 38 
*END

*D_NET *530 0.00138116
*CONN
*I *1928:B I *D sky130_fd_sc_hd__and2b_2
*I *1925:X O *D sky130_fd_sc_hd__a31o_2
*CAP
1 *1928:B 0
2 *1925:X 0.000489358
3 *530:10 0.000489358
4 *530:10 *1999:A 0
5 *1809:C *530:10 4.91172e-06
6 *1811:B *530:10 0
7 *160:10 *530:10 0.000233367
8 *237:10 *530:10 0.000108157
9 *279:10 *530:10 5.60117e-05
*RES
1 *1925:X *530:10 47.2593 
2 *530:10 *1928:B 38 
*END

*D_NET *531 0.00346765
*CONN
*I *1927:A3 I *D sky130_fd_sc_hd__a31o_2
*I *1930:A3 I *D sky130_fd_sc_hd__a31o_2
*I *1929:D I *D sky130_fd_sc_hd__nand4_2
*I *1926:X O *D sky130_fd_sc_hd__and2_2
*CAP
1 *1927:A3 0
2 *1930:A3 0.000234933
3 *1929:D 0
4 *1926:X 0
5 *531:19 0.000426253
6 *531:12 0.000495225
7 *531:4 0.000686545
8 *1930:A3 *1927:B1 0
9 *1930:A3 *532:10 8.75254e-05
10 *1930:A3 *661:42 0.000100486
11 *531:12 *1927:B1 5.92689e-05
12 *531:12 *609:10 0.000378933
13 *531:12 *636:60 8.15379e-06
14 *531:12 *660:52 4.53082e-05
15 *531:12 *661:27 0.00035058
16 *531:12 *670:125 1.05441e-05
17 *531:12 *688:95 4.52198e-05
18 *531:19 *1927:B1 4.84155e-05
19 *1924:A2 *531:12 1.28035e-05
20 *278:10 *531:12 9.41704e-05
21 *278:18 *531:12 1.71615e-05
22 *528:20 *531:12 0.000366129
*RES
1 *1926:X *531:4 23 
2 *531:4 *531:12 41.9936 
3 *531:12 *1929:D 23 
4 *531:4 *531:19 3.48 
5 *531:19 *1930:A3 27.8264 
6 *531:19 *1927:A3 23 
*END

*D_NET *532 0.00222426
*CONN
*I *1928:A_N I *D sky130_fd_sc_hd__and2b_2
*I *1927:X O *D sky130_fd_sc_hd__a31o_2
*CAP
1 *1928:A_N 0.000191013
2 *1927:X 0.000355309
3 *532:10 0.000546322
4 *1928:A_N *773:20 0.000218071
5 *532:10 *2122:CLK 0.000133258
6 *532:10 *661:42 5.82853e-05
7 *1930:A1 *532:10 5.58003e-05
8 *1930:A3 *532:10 8.75254e-05
9 *2121:SET_B *532:10 0
10 *237:10 *1928:A_N 0.000145154
11 *248:6 *532:10 0.000365093
12 *360:39 *532:10 5.56356e-05
13 *361:8 *532:10 1.27918e-05
*RES
1 *1927:X *532:10 46.2443 
2 *532:10 *1928:A_N 42.4329 
*END

*D_NET *533 0.00118406
*CONN
*I *1931:B I *D sky130_fd_sc_hd__and3_2
*I *1929:Y O *D sky130_fd_sc_hd__nand4_2
*CAP
1 *1931:B 0.0001196
2 *1929:Y 0.000182853
3 *533:8 0.000302453
4 *533:8 *2046:CLK 7.89883e-05
5 *533:8 *547:65 0.000256151
6 *533:8 *657:10 4.31141e-05
7 *169:79 *1931:B 0.000137525
8 *521:31 *533:8 1.13812e-05
9 *521:48 *533:8 5.19959e-05
*RES
1 *1929:Y *533:8 41.6664 
2 *533:8 *1931:B 39.5743 
*END

*D_NET *534 0.00501238
*CONN
*I *1931:C I *D sky130_fd_sc_hd__and3_2
*I *1930:X O *D sky130_fd_sc_hd__a31o_2
*CAP
1 *1931:C 0.000637553
2 *1930:X 0.000106661
3 *534:10 0.000744214
4 *1931:C *647:38 2.52012e-05
5 *1931:C *651:18 0.0017261
6 *1931:C *670:80 0.000504187
7 *1931:C *687:63 0.000958858
8 *534:10 *1650:A 0.000196428
9 *1918:A *1931:C 2.33476e-05
10 *2121:SET_B *534:10 8.98298e-05
*RES
1 *1930:X *534:10 48.7861 
2 *534:10 *1931:C 49.7259 
*END

*D_NET *535 0.0390586
*CONN
*I *2137:A I *D sky130_fd_sc_hd__clkbuf_8
*I *2135:A I *D sky130_fd_sc_hd__clkbuf_8
*I *2134:A I *D sky130_fd_sc_hd__clkbuf_8
*I *2136:A I *D sky130_fd_sc_hd__clkbuf_8
*I *2128:A I *D sky130_fd_sc_hd__clkbuf_8
*I *2130:A I *D sky130_fd_sc_hd__clkbuf_8
*I *2129:A I *D sky130_fd_sc_hd__clkbuf_8
*I *2127:A I *D sky130_fd_sc_hd__clkbuf_8
*I *2139:A I *D sky130_fd_sc_hd__clkbuf_8
*I *2126:A I *D sky130_fd_sc_hd__clkbuf_8
*I *2125:A I *D sky130_fd_sc_hd__clkbuf_8
*I *2138:A I *D sky130_fd_sc_hd__clkbuf_8
*I *2133:A I *D sky130_fd_sc_hd__clkbuf_8
*I *2124:A I *D sky130_fd_sc_hd__clkbuf_8
*I *2131:A I *D sky130_fd_sc_hd__clkbuf_8
*I *2132:A I *D sky130_fd_sc_hd__clkbuf_8
*I *2123:X O *D sky130_fd_sc_hd__clkbuf_16
*CAP
1 *2137:A 4.01155e-05
2 *2135:A 0
3 *2134:A 0
4 *2136:A 0
5 *2128:A 0
6 *2130:A 2.20942e-05
7 *2129:A 5.34473e-05
8 *2127:A 0
9 *2139:A 0
10 *2126:A 4.0824e-05
11 *2125:A 3.42725e-05
12 *2138:A 0
13 *2133:A 0
14 *2124:A 3.42938e-05
15 *2131:A 0.000122164
16 *2132:A 0
17 *2123:X 8.549e-05
18 *535:351 0.000451131
19 *535:337 0.000422132
20 *535:331 0.00103204
21 *535:326 0.000246158
22 *535:317 0.000196073
23 *535:313 0.000684567
24 *535:296 0.000693926
25 *535:294 0.000238929
26 *535:290 0.0015791
27 *535:285 0.00165029
28 *535:276 0.00022319
29 *535:259 3.88664e-05
30 *535:245 0.000343327
31 *535:239 0.00235516
32 *535:233 0.00283527
33 *535:224 0.000806898
34 *535:215 0.000164044
35 *535:209 0.000595135
36 *535:190 0.00029382
37 *535:176 0.000305559
38 *535:174 0.00135553
39 *535:160 0.000544977
40 *535:154 0.00224123
41 *535:139 0.000865005
42 *535:137 0.000103835
43 *535:133 0.000429125
44 *535:106 0.000572364
45 *535:86 0.000587938
46 *535:76 0.0019151
47 *535:63 0.00100552
48 *535:61 0.000183893
49 *535:57 0.000153224
50 *535:43 0.000463784
51 *535:33 0.00179931
52 *535:15 0.00227989
53 *535:13 0.00134232
54 *535:6 0.000222672
55 *2124:A *536:86 3.26132e-05
56 *2126:A *694:53 2.05881e-05
57 *2129:A *541:8 5.3304e-05
58 *2129:A *761:40 2.83509e-05
59 *2129:A *762:35 0.000120765
60 *2131:A *543:10 8.57436e-05
61 *535:6 *727:40 7.59794e-05
62 *535:6 *727:48 6.17437e-06
63 *535:6 *734:44 8.76961e-08
64 *535:13 *734:44 3.39418e-05
65 *535:15 *1621:A1 0
66 *535:15 *1722:A1 3.24733e-05
67 *535:15 *727:40 0
68 *535:15 *731:122 5.91218e-05
69 *535:15 *731:124 0.000152975
70 *535:15 *734:8 0.000110962
71 *535:15 *734:44 2.11887e-05
72 *535:33 *681:36 0.00037705
73 *535:33 *681:50 1.74874e-06
74 *535:33 *731:122 4.35396e-05
75 *535:33 *735:63 2.61781e-05
76 *535:43 *544:23 5.12512e-05
77 *535:57 *545:8 6.63694e-05
78 *535:61 *545:8 8.95381e-05
79 *535:63 *545:8 7.46513e-05
80 *535:76 *545:8 1.54359e-06
81 *535:76 *559:31 6.59904e-05
82 *535:86 *1863:A1 1.61305e-05
83 *535:86 *543:10 0.000111978
84 *535:86 *559:16 2.95526e-05
85 *535:86 *559:31 2.95423e-05
86 *535:106 *1879:A 8.83244e-05
87 *535:106 *559:16 2.36931e-05
88 *535:106 *667:55 0.000148422
89 *535:154 *690:75 0
90 *535:176 *2095:CLK 4.16333e-05
91 *535:176 *729:36 0.000223736
92 *535:190 *2095:CLK 6.42151e-06
93 *535:190 *2174:A 6.35028e-05
94 *535:190 *538:10 3.40882e-05
95 *535:190 *538:12 5.97392e-05
96 *535:190 *729:36 3.92115e-05
97 *535:209 *711:10 0
98 *535:233 *1821:A 0
99 *535:233 *540:14 0
100 *535:233 *588:10 0
101 *535:233 *696:34 0.000111741
102 *535:233 *696:38 0
103 *535:233 *742:23 0
104 *535:245 *1678:C 6.16881e-06
105 *535:245 *2072:CLK 8.2586e-05
106 *535:245 *541:10 1.74126e-05
107 *535:285 *2004:A 4.76809e-05
108 *535:285 *2211:A 0
109 *535:290 *1822:A1 6.70749e-05
110 *535:290 *1822:B1 0.000144231
111 *535:290 *2006:A 0.000130877
112 *535:290 *2211:A 1.5769e-05
113 *535:290 *549:12 4.75236e-05
114 *535:290 *549:86 7.58413e-05
115 *535:290 *549:99 2.38751e-05
116 *535:290 *687:36 0.000149925
117 *535:290 *688:124 2.93747e-05
118 *535:294 *549:12 4.65288e-05
119 *535:296 *549:12 1.39431e-05
120 *535:296 *740:8 1.14005e-06
121 *535:313 *548:6 7.61229e-06
122 *535:313 *548:58 9.98704e-05
123 *535:313 *740:8 1.27917e-05
124 *535:313 *747:16 2.18063e-05
125 *535:317 *2195:A 2.95423e-05
126 *535:326 *2195:A 2.75241e-05
127 *535:337 *567:10 5.28455e-05
128 *535:337 *594:10 6.42884e-05
129 *535:351 *548:70 0
130 *535:351 *638:12 8.51329e-05
131 *535:351 *682:68 0
132 *1743:B1 *2125:A 5.12254e-05
133 *1771:A *535:76 6.31864e-05
134 *1863:A2 *535:106 9.22317e-05
135 *1882:B *535:86 7.01168e-05
136 *1882:C *535:86 4.59144e-05
137 *1884:B *535:76 2.95526e-05
138 *1884:B *535:86 6.17437e-06
139 *1884:C *535:86 1.76557e-05
140 *1885:A1 *535:76 1.55097e-05
141 *13:10 *535:154 0
142 *142:10 *535:43 0
143 *149:10 *535:351 0
144 *150:10 *535:233 1.98991e-05
145 *166:8 *535:209 0
146 *167:10 *535:209 7.30978e-05
147 *177:8 *535:154 7.86228e-05
148 *179:10 *535:15 8.41357e-05
149 *179:10 *535:33 4.12225e-05
150 *213:10 *535:43 0.000119184
151 *228:8 *535:209 0
152 *231:8 *535:209 0
153 *241:10 *535:290 7.15126e-05
154 *242:8 *535:233 0
155 *244:10 *535:290 1.14876e-05
156 *271:6 *535:337 4.94011e-05
157 *293:8 *535:15 6.93449e-05
158 *306:10 *535:245 0
159 *309:16 *535:239 0.000102641
160 *314:10 *2130:A 3.26035e-05
161 *314:10 *535:245 0
162 *330:25 *535:15 0
163 *330:25 *535:133 6.07272e-05
164 *331:42 *535:15 4.08641e-05
165 *341:45 *535:13 3.3577e-05
166 *341:45 *535:15 4.54033e-05
167 *341:45 *535:209 9.17704e-05
168 *346:14 *535:176 0
169 *348:20 *2125:A 5.41385e-05
170 *376:22 *2130:A 3.26035e-05
171 *383:12 *535:245 2.05505e-05
172 *383:25 *535:245 4.74648e-05
173 *383:25 *535:259 3.34818e-06
174 *442:31 *535:33 0.000130277
175 *446:12 *535:33 0.000716643
176 *446:22 *535:76 2.64616e-05
177 *447:12 *535:76 2.97099e-05
178 *447:18 *535:106 1.36016e-05
179 *450:10 *535:15 7.9835e-05
180 *454:20 *535:43 0
181 *457:10 *535:313 9.55085e-05
182 *467:10 *535:290 1.61361e-05
183 *482:34 *535:86 0
184 *485:10 *535:106 3.34818e-06
185 *489:18 *535:106 0.000318246
186 *491:23 *535:86 0
187 *491:23 *535:106 0
188 *494:20 *535:86 0.000137365
189 *495:16 *535:86 4.92706e-05
190 *500:10 *535:86 2.1199e-05
191 *504:6 *535:76 9.67816e-05
192 *504:19 *535:76 4.98398e-05
193 *522:10 *535:313 2.38288e-05
194 *522:16 *535:313 6.01596e-05
*RES
1 *2123:X *535:6 24.5795 
2 *535:6 *535:13 17.522 
3 *535:13 *535:15 15.2871 
4 *535:15 *535:33 28.3798 
5 *535:33 *535:43 9.07286 
6 *535:43 *2132:A 38 
7 *535:33 *535:57 16.3361 
8 *535:57 *535:61 1.8125 
9 *535:61 *535:63 1.68304 
10 *535:63 *535:76 15.3648 
11 *535:76 *535:86 39.482 
12 *535:86 *2131:A 25.5427 
13 *535:76 *535:106 27.2629 
14 *535:106 *2124:A 38.6836 
15 *535:61 *2133:A 23 
16 *535:15 *535:133 20.8829 
17 *535:133 *535:137 1.74 
18 *535:137 *535:139 15 
19 *535:139 *535:154 29.3315 
20 *535:154 *535:160 9.49334 
21 *535:160 *2138:A 38 
22 *535:154 *535:174 10.0309 
23 *535:174 *535:176 5.60321 
24 *535:176 *2125:A 39.0979 
25 *535:174 *535:190 5.60321 
26 *535:190 *2126:A 38.6836 
27 *535:137 *2139:A 23 
28 *535:13 *535:209 10.3571 
29 *535:209 *535:215 16.0979 
30 *535:215 *2127:A 23 
31 *535:215 *535:224 16.5743 
32 *535:224 *535:233 12.8325 
33 *535:233 *535:239 20.2635 
34 *535:239 *535:245 6.36964 
35 *535:245 *2129:A 39.5743 
36 *535:239 *535:259 0.321071 
37 *535:259 *2130:A 38.6836 
38 *535:233 *535:276 16.0979 
39 *535:276 *2128:A 23 
40 *535:276 *535:285 3.01393 
41 *535:285 *535:290 26.3486 
42 *535:290 *535:294 1.8125 
43 *535:294 *535:296 1.64161 
44 *535:296 *535:313 41.7605 
45 *535:313 *535:317 2.05071 
46 *535:317 *2136:A 23 
47 *535:317 *535:326 2.18536 
48 *535:326 *535:331 2.76536 
49 *535:331 *535:337 22.9957 
50 *535:337 *2134:A 38 
51 *535:331 *535:351 23.2443 
52 *535:351 *2135:A 38 
53 *535:294 *2137:A 23.8493 
*END

*D_NET *536 0.00878149
*CONN
*I *2063:CLK I *D sky130_fd_sc_hd__dfrtp_2
*I *2140:A I *D sky130_fd_sc_hd__clkbuf_4
*I *2020:CLK I *D sky130_fd_sc_hd__dfxtp_2
*I *2065:CLK I *D sky130_fd_sc_hd__dfrtp_2
*I *2064:CLK I *D sky130_fd_sc_hd__dfrtp_2
*I *2019:CLK I *D sky130_fd_sc_hd__dfxtp_2
*I *2017:CLK I *D sky130_fd_sc_hd__dfxtp_2
*I *2018:CLK I *D sky130_fd_sc_hd__dfxtp_2
*I *2124:X O *D sky130_fd_sc_hd__clkbuf_8
*CAP
1 *2063:CLK 0
2 *2140:A 0.000355899
3 *2020:CLK 0.000182929
4 *2065:CLK 0.000104578
5 *2064:CLK 3.23488e-05
6 *2019:CLK 0
7 *2017:CLK 0
8 *2018:CLK 0.000313606
9 *2124:X 0.000228381
10 *536:86 0.000228381
11 *536:40 3.23488e-05
12 *536:20 0.000776186
13 *536:12 0.000574878
14 *536:10 0.00036938
15 *536:8 0.000851483
16 *536:6 0.000871949
17 *2018:CLK *662:8 2.95526e-05
18 *2020:CLK *1852:A 5.11621e-05
19 *2020:CLK *1852:D 0.000356724
20 *2020:CLK *663:57 9.41704e-05
21 *2020:CLK *665:6 6.17437e-06
22 *2020:CLK *666:22 0.000249258
23 *2064:CLK *678:86 5.45644e-05
24 *2065:CLK *568:10 0.000149896
25 *2065:CLK *678:12 7.95762e-05
26 *2140:A *1863:A1 0.000128713
27 *536:8 *1856:B1 0
28 *536:8 *666:41 0
29 *536:8 *667:12 7.8128e-05
30 *536:8 *677:50 0
31 *536:10 *659:14 0
32 *536:10 *666:34 0
33 *536:10 *666:41 0
34 *536:10 *678:16 1.97671e-05
35 *536:12 *678:16 6.5117e-06
36 *536:12 *678:18 5.83478e-05
37 *536:20 *678:18 1.41891e-05
38 *536:20 *678:20 4.06418e-05
39 *536:20 *678:22 3.56796e-05
40 *536:86 *574:8 5.50049e-05
41 *536:86 *675:14 1.21972e-05
42 *536:86 *677:50 2.62931e-05
43 *536:86 *679:48 0.000512377
44 *1772:A *536:86 9.41704e-05
45 *1866:C *2140:A 5.95625e-06
46 *1866:C *536:8 2.96322e-05
47 *2017:D *536:20 1.64354e-05
48 *2124:A *536:86 3.26132e-05
49 *252:12 *2018:CLK 0.000128655
50 *254:14 *2020:CLK 8.828e-05
51 *257:10 *2140:A 0.000114083
52 *478:32 *2018:CLK 0.00055003
53 *479:18 *2018:CLK 0.000212924
54 *479:18 *536:20 2.39778e-06
55 *480:10 *536:12 0.00020829
56 *480:10 *536:20 0.000165394
57 *481:22 *536:20 0.000116725
58 *482:8 *536:8 0
59 *482:34 *2140:A 0
60 *482:34 *536:8 0
61 *484:6 *2064:CLK 3.46302e-05
*RES
1 *2124:X *536:6 38 
2 *536:6 *536:8 8.24429 
3 *536:8 *536:10 2.61 
4 *536:10 *536:12 3.31429 
5 *536:12 *536:20 23.5757 
6 *536:20 *2018:CLK 33.3364 
7 *536:20 *2017:CLK 23 
8 *536:12 *536:40 15 
9 *536:40 *2019:CLK 23 
10 *536:40 *2064:CLK 24.0979 
11 *536:10 *2065:CLK 41.0036 
12 *536:8 *2020:CLK 44.815 
13 *536:6 *2140:A 43.7793 
14 *2124:X *536:86 28.8621 
15 *536:86 *2063:CLK 23 
*END

*D_NET *537 0.00870377
*CONN
*I *2152:A I *D sky130_fd_sc_hd__clkbuf_4
*I *2098:CLK I *D sky130_fd_sc_hd__dfrtp_2
*I *2094:CLK I *D sky130_fd_sc_hd__dfstp_2
*I *2093:CLK I *D sky130_fd_sc_hd__dfrtp_2
*I *2092:CLK I *D sky130_fd_sc_hd__dfrtp_2
*I *2062:CLK I *D sky130_fd_sc_hd__dfrtp_2
*I *2054:CLK I *D sky130_fd_sc_hd__dfrtp_2
*I *2096:CLK I *D sky130_fd_sc_hd__dfrtp_2
*I *2125:X O *D sky130_fd_sc_hd__clkbuf_8
*CAP
1 *2152:A 0.000352507
2 *2098:CLK 0.000166838
3 *2094:CLK 0.000368791
4 *2093:CLK 0
5 *2092:CLK 0.000351938
6 *2062:CLK 0
7 *2054:CLK 0
8 *2096:CLK 0.000440982
9 *2125:X 1.50079e-05
10 *537:69 0.000535629
11 *537:28 0.000833738
12 *537:22 0.000600833
13 *537:14 0.000784196
14 *537:12 0.000335534
15 *537:10 0.000280897
16 *537:8 0.000537059
17 *2092:CLK *1951:A 0.000199757
18 *2094:CLK *616:10 5.3304e-05
19 *2094:CLK *716:53 0.000192022
20 *2094:CLK *721:14 5.50106e-05
21 *2094:CLK *721:25 0.000263967
22 *2096:CLK *692:31 7.97499e-05
23 *2096:CLK *692:42 9.13004e-05
24 *2098:CLK *719:74 6.32895e-05
25 *2098:CLK *721:25 1.6318e-05
26 *2098:CLK *721:36 1.01436e-05
27 *2152:A *556:88 0
28 *2152:A *572:10 0.000172381
29 *2152:A *729:36 0
30 *537:10 *721:36 6.25829e-05
31 *537:10 *729:36 0
32 *537:12 *721:10 0
33 *537:12 *721:36 0.000194309
34 *537:14 *1717:C 0.000168744
35 *537:14 *617:10 3.56537e-05
36 *537:14 *721:36 2.77955e-05
37 *537:28 *1737:A 6.53942e-05
38 *537:28 *552:44 5.50106e-05
39 *537:28 *692:42 0.00010927
40 *1716:A *537:22 0.000137618
41 *1716:A *537:28 1.76557e-05
42 *1718:B1 *2092:CLK 5.50049e-05
43 *1794:B1 *2152:A 9.48381e-06
44 *1794:B1 *537:10 4.38375e-05
45 *1794:B1 *537:14 6.88922e-05
46 *1794:B1 *537:22 7.75329e-06
47 *13:10 *2096:CLK 0
48 *136:10 *2096:CLK 0
49 *176:8 *2096:CLK 9.70579e-05
50 *176:8 *537:28 0.000102736
51 *189:10 *2092:CLK 1.5769e-05
52 *296:10 *2092:CLK 2.64616e-05
53 *296:10 *537:22 0.000133316
54 *346:14 *2152:A 0.000196389
55 *346:14 *537:8 5.50049e-05
56 *348:20 *537:8 5.50049e-05
57 *349:19 *2152:A 0
58 *407:25 *537:22 9.21347e-06
59 *408:10 *537:28 5.41385e-05
60 *421:10 *537:28 9.84794e-05
*RES
1 *2125:X *537:8 38.6214 
2 *537:8 *537:10 2.96214 
3 *537:10 *537:12 2.61 
4 *537:12 *537:14 5.42714 
5 *537:14 *537:22 19.5571 
6 *537:22 *537:28 24.3007 
7 *537:28 *2096:CLK 47.8186 
8 *537:28 *2054:CLK 38 
9 *537:22 *2062:CLK 23 
10 *537:14 *2092:CLK 44.815 
11 *537:12 *2093:CLK 38 
12 *537:10 *537:69 15 
13 *537:69 *2094:CLK 31.265 
14 *537:69 *2098:CLK 26.0243 
15 *537:8 *2152:A 45.83 
*END

*D_NET *538 0.00987159
*CONN
*I *2016:CLK I *D sky130_fd_sc_hd__dfrtp_2
*I *2097:CLK I *D sky130_fd_sc_hd__dfrtp_2
*I *2015:CLK I *D sky130_fd_sc_hd__dfstp_2
*I *2083:CLK I *D sky130_fd_sc_hd__dfrtp_2
*I *2153:A I *D sky130_fd_sc_hd__clkbuf_4
*I *2050:CLK I *D sky130_fd_sc_hd__dfrtp_2
*I *2056:CLK I *D sky130_fd_sc_hd__dfrtp_2
*I *2095:CLK I *D sky130_fd_sc_hd__dfrtp_2
*I *2126:X O *D sky130_fd_sc_hd__clkbuf_8
*CAP
1 *2016:CLK 0.000485318
2 *2097:CLK 5.73256e-05
3 *2015:CLK 0
4 *2083:CLK 0.000493708
5 *2153:A 0
6 *2050:CLK 0.000501133
7 *2056:CLK 0.000658245
8 *2095:CLK 0.000504695
9 *2126:X 8.39455e-05
10 *538:76 0.000698019
11 *538:65 0.000497426
12 *538:40 0.000994841
13 *538:12 0.00130437
14 *538:10 0.0002484
15 *538:8 0.000532962
16 *2016:CLK *1779:A1 3.16665e-05
17 *2016:CLK *776:8 6.70017e-05
18 *2050:CLK *1735:A1 5.3304e-05
19 *2050:CLK *1735:B1 4.98398e-05
20 *2050:CLK *1945:A 0.000364774
21 *2050:CLK *556:10 5.61413e-05
22 *2050:CLK *571:6 7.33916e-05
23 *2050:CLK *692:78 1.12268e-05
24 *2056:CLK *729:10 6.51763e-05
25 *2083:CLK *1637:A 7.48414e-05
26 *2083:CLK *1945:A 0.000307659
27 *2097:CLK *2097:D 3.22879e-05
28 *538:8 *694:53 0.000186041
29 *538:65 *565:10 3.14274e-05
30 *538:65 *694:144 0
31 *538:76 *694:144 0
32 *1779:B1_N *2016:CLK 9.72284e-05
33 *2056:D *2056:CLK 0.000106478
34 *2095:RESET_B *2095:CLK 0.000195039
35 *2175:A *2056:CLK 0.000138859
36 *132:10 *538:65 0
37 *132:10 *538:76 0
38 *145:10 *2016:CLK 4.2062e-05
39 *145:10 *538:65 0
40 *145:10 *538:76 0
41 *172:8 *538:76 0
42 *224:8 *538:76 0
43 *321:14 *538:65 0.000267942
44 *346:14 *2095:CLK 4.94738e-05
45 *346:14 *538:10 5.34813e-05
46 *346:14 *538:12 6.49013e-05
47 *346:14 *538:65 8.93738e-05
48 *346:21 *538:65 3.35625e-05
49 *346:47 *538:65 7.03359e-05
50 *350:10 *2083:CLK 5.58003e-05
51 *535:176 *2095:CLK 4.16333e-05
52 *535:190 *2095:CLK 6.42151e-06
53 *535:190 *538:10 3.40882e-05
54 *535:190 *538:12 5.97392e-05
*RES
1 *2126:X *538:8 40.0507 
2 *538:8 *538:10 2.61 
3 *538:10 *538:12 3.31429 
4 *538:12 *2095:CLK 46.7829 
5 *538:12 *2056:CLK 49.5793 
6 *538:10 *538:40 15 
7 *538:40 *2050:CLK 32.6943 
8 *538:40 *2153:A 23 
9 *538:40 *2083:CLK 32.2179 
10 *538:8 *538:65 8.59643 
11 *538:65 *2015:CLK 38 
12 *538:65 *538:76 17.9621 
13 *538:76 *2097:CLK 24.0979 
14 *538:76 *2016:CLK 32.1971 
*END

*D_NET *539 0.0124708
*CONN
*I *2078:CLK I *D sky130_fd_sc_hd__dfrtp_2
*I *2101:CLK I *D sky130_fd_sc_hd__dfstp_2
*I *2102:CLK I *D sky130_fd_sc_hd__dfstp_2
*I *2103:CLK I *D sky130_fd_sc_hd__dfrtp_2
*I *2013:CLK I *D sky130_fd_sc_hd__dfstp_2
*I *2142:A I *D sky130_fd_sc_hd__clkbuf_4
*I *2116:CLK I *D sky130_fd_sc_hd__dfrtp_2
*I *2104:CLK I *D sky130_fd_sc_hd__dfrtp_2
*I *2127:X O *D sky130_fd_sc_hd__clkbuf_8
*CAP
1 *2078:CLK 0.000298951
2 *2101:CLK 0
3 *2102:CLK 2.34823e-05
4 *2103:CLK 0
5 *2013:CLK 0.000104176
6 *2142:A 0
7 *2116:CLK 0
8 *2104:CLK 0.000420853
9 *2127:X 0.000352481
10 *539:84 0.000298951
11 *539:63 0.00102818
12 *539:48 0.000902009
13 *539:35 0.00130441
14 *539:24 0.000981566
15 *539:20 0.00153169
16 *539:18 0.000868591
17 *539:10 0.000748219
18 *2078:CLK *695:18 0.000100061
19 *2078:CLK *695:20 0.000233769
20 *2078:CLK *695:30 0.000233367
21 *539:10 *695:30 0.000246748
22 *539:10 *758:14 0
23 *539:18 *695:30 1.14452e-05
24 *539:18 *708:10 5.27215e-06
25 *539:24 *711:10 0
26 *539:24 *774:8 5.21127e-05
27 *539:35 *1821:A 0
28 *539:35 *688:124 6.21642e-05
29 *539:48 *1654:A 0
30 *539:48 *611:10 0
31 *539:48 *696:53 0.000128401
32 *539:63 *711:20 3.46673e-05
33 *1799:A2 *539:20 5.67058e-05
34 *1821:C *539:35 0.000277595
35 *1821:C *539:48 0.000420705
36 *2102:D *539:18 3.71369e-05
37 *2104:RESET_B *2104:CLK 2.56078e-05
38 *2393:A *539:48 0.000443679
39 *151:10 *539:35 5.50955e-05
40 *167:10 *539:18 0
41 *167:10 *539:20 0.000140259
42 *204:10 *2078:CLK 3.22051e-05
43 *228:8 *539:10 0
44 *228:8 *539:18 0
45 *229:8 *539:18 0
46 *230:10 *539:24 0
47 *230:10 *539:35 0
48 *231:8 *539:24 6.25829e-05
49 *231:8 *539:35 0.000141888
50 *337:12 *2104:CLK 0.000218493
51 *341:31 *539:20 0.000177271
52 *341:31 *539:63 3.17634e-05
53 *365:10 *539:48 5.50049e-05
54 *464:10 *539:48 0.000136132
55 *464:16 *539:48 0.000187121
*RES
1 *2127:X *539:10 44.525 
2 *539:10 *539:18 20.8829 
3 *539:18 *539:20 8.24429 
4 *539:20 *539:24 17.61 
5 *539:24 *2104:CLK 46.2443 
6 *539:24 *539:35 8.59643 
7 *539:35 *2116:CLK 38 
8 *539:35 *539:48 35.4864 
9 *539:48 *2142:A 23 
10 *539:20 *539:63 12.2629 
11 *539:63 *2013:CLK 24.5743 
12 *539:63 *2103:CLK 23 
13 *539:18 *2102:CLK 23.4971 
14 *539:10 *539:84 15 
15 *539:84 *2101:CLK 23 
16 *539:84 *2078:CLK 30.3121 
*END

*D_NET *540 0.010813
*CONN
*I *2074:CLK I *D sky130_fd_sc_hd__dfrtp_2
*I *2067:CLK I *D sky130_fd_sc_hd__dfrtp_2
*I *2066:CLK I *D sky130_fd_sc_hd__dfrtp_2
*I *2113:CLK I *D sky130_fd_sc_hd__dfrtp_2
*I *2111:CLK I *D sky130_fd_sc_hd__dfrtp_2
*I *2112:CLK I *D sky130_fd_sc_hd__dfrtp_2
*I *2143:A I *D sky130_fd_sc_hd__clkbuf_4
*I *2117:CLK I *D sky130_fd_sc_hd__dfrtp_2
*I *2128:X O *D sky130_fd_sc_hd__clkbuf_8
*CAP
1 *2074:CLK 0
2 *2067:CLK 0.000349693
3 *2066:CLK 7.91458e-05
4 *2113:CLK 0
5 *2111:CLK 0.000249685
6 *2112:CLK 0
7 *2143:A 2.95294e-05
8 *2117:CLK 0
9 *2128:X 7.32559e-05
10 *540:79 0.000708271
11 *540:54 0.000556498
12 *540:48 0.000792278
13 *540:44 0.000898997
14 *540:40 0.0005278
15 *540:21 0.000601485
16 *540:14 0.000999277
17 *540:8 0.00125079
18 *2066:CLK *1689:A 2.81066e-05
19 *2067:CLK *673:21 8.00093e-06
20 *2067:CLK *673:34 5.54823e-05
21 *2067:CLK *773:18 0.000187668
22 *2111:CLK *752:10 3.06889e-05
23 *2111:CLK *752:12 0.000141038
24 *2111:CLK *752:16 0.000283312
25 *2143:A *696:53 5.50049e-05
26 *540:14 *588:10 7.48414e-05
27 *540:14 *757:51 0.000102702
28 *540:21 *696:53 0
29 *540:21 *696:61 3.47781e-05
30 *540:21 *757:51 7.63072e-05
31 *540:40 *674:18 0
32 *540:40 *696:61 0.000349395
33 *540:44 *673:10 5.36457e-05
34 *540:44 *674:18 1.44546e-05
35 *540:44 *696:61 0
36 *540:48 *754:8 0.000260631
37 *540:54 *1653:D_N 1.32314e-05
38 *540:54 *752:16 0.00041036
39 *540:54 *754:44 6.63801e-05
40 *540:54 *754:48 0.000141954
41 *540:79 *2002:A 9.85586e-06
42 *540:79 *673:10 6.25948e-05
43 *540:79 *696:61 0
44 *540:79 *700:84 0.000192941
45 *540:79 *773:18 0.000206484
46 *1815:D *540:54 7.1349e-05
47 *2115:D *540:14 2.95526e-05
48 *150:10 *540:14 0.000221513
49 *162:10 *2111:CLK 9.60669e-05
50 *308:8 *540:44 4.83778e-05
51 *392:8 *2067:CLK 3.6909e-05
52 *392:8 *540:79 0.000141879
53 *459:58 *2111:CLK 0
54 *459:58 *540:54 0
55 *461:8 *2111:CLK 0.000190742
56 *535:233 *540:14 0
*RES
1 *2128:X *540:8 39.0979 
2 *540:8 *540:14 33.56 
3 *540:14 *2117:CLK 23 
4 *540:8 *540:21 3.66643 
5 *540:21 *2143:A 38.6214 
6 *540:21 *540:40 22.2914 
7 *540:40 *540:44 18.3143 
8 *540:44 *540:48 24.1971 
9 *540:48 *540:54 23.4307 
10 *540:54 *2112:CLK 38 
11 *540:54 *2111:CLK 44.8771 
12 *540:48 *2113:CLK 23 
13 *540:44 *540:79 8.24429 
14 *540:79 *2066:CLK 39.0979 
15 *540:79 *2067:CLK 45.3536 
16 *540:40 *2074:CLK 23 
*END

*D_NET *541 0.00877634
*CONN
*I *2072:CLK I *D sky130_fd_sc_hd__dfrtp_2
*I *2080:CLK I *D sky130_fd_sc_hd__dfrtp_2
*I *2144:A I *D sky130_fd_sc_hd__clkbuf_4
*I *2076:CLK I *D sky130_fd_sc_hd__dfrtp_2
*I *2115:CLK I *D sky130_fd_sc_hd__dfrtp_2
*I *2077:CLK I *D sky130_fd_sc_hd__dfrtp_2
*I *2081:CLK I *D sky130_fd_sc_hd__dfrtp_2
*I *2079:CLK I *D sky130_fd_sc_hd__dfrtp_2
*I *2129:X O *D sky130_fd_sc_hd__clkbuf_8
*CAP
1 *2072:CLK 0.000103383
2 *2080:CLK 0
3 *2144:A 0
4 *2076:CLK 0
5 *2115:CLK 0.000235407
6 *2077:CLK 0.000369659
7 *2081:CLK 0.000367482
8 *2079:CLK 0.000306549
9 *2129:X 0.00015277
10 *541:65 0.0010113
11 *541:44 0.00122934
12 *541:40 0.000399392
13 *541:36 0.000315604
14 *541:12 0.00082416
15 *541:10 0.000321051
16 *541:8 0.000427075
17 *2077:CLK *698:37 5.50106e-05
18 *2077:CLK *701:92 9.74625e-05
19 *2079:CLK *578:10 5.67058e-05
20 *2079:CLK *585:10 9.98891e-05
21 *2079:CLK *701:92 5.41288e-05
22 *2115:CLK *757:51 0.000191255
23 *541:8 *761:40 0.00021241
24 *541:8 *762:35 0.00011733
25 *541:12 *1678:C 0
26 *541:12 *585:10 6.32688e-05
27 *541:40 *700:35 0.000472322
28 *541:44 *700:35 6.9805e-05
29 *1664:C *2077:CLK 0.000111253
30 *1669:A2 *2077:CLK 2.12303e-05
31 *1669:A2 *541:65 2.79603e-05
32 *2081:D *2081:CLK 5.41288e-05
33 *2129:A *541:8 5.3304e-05
34 *203:8 *2077:CLK 0.000127412
35 *203:8 *541:65 2.64527e-05
36 *314:10 *2072:CLK 0.000193034
37 *314:10 *541:10 0.000159276
38 *368:39 *2115:CLK 5.25626e-05
39 *368:39 *541:65 1.88909e-05
40 *376:12 *2081:CLK 0.000224605
41 *377:20 *2079:CLK 0
42 *377:20 *541:12 0
43 *379:12 *2115:CLK 5.34712e-05
44 *535:245 *2072:CLK 8.2586e-05
45 *535:245 *541:10 1.74126e-05
*RES
1 *2129:X *541:8 42.4329 
2 *541:8 *541:10 2.96214 
3 *541:10 *541:12 2.96214 
4 *541:12 *2079:CLK 44.1107 
5 *541:12 *2081:CLK 44.815 
6 *541:10 *541:36 15 
7 *541:36 *541:40 6.83571 
8 *541:40 *541:44 16.5743 
9 *541:44 *2077:CLK 46.8036 
10 *541:44 *541:65 26.1236 
11 *541:65 *2115:CLK 28.3857 
12 *541:65 *2076:CLK 23 
13 *541:40 *2144:A 23 
14 *541:36 *2080:CLK 23 
15 *541:8 *2072:CLK 41.2314 
*END

*D_NET *542 0.0114658
*CONN
*I *2069:CLK I *D sky130_fd_sc_hd__dfrtp_2
*I *2068:CLK I *D sky130_fd_sc_hd__dfrtp_2
*I *2070:CLK I *D sky130_fd_sc_hd__dfrtp_2
*I *2071:CLK I *D sky130_fd_sc_hd__dfrtp_2
*I *2073:CLK I *D sky130_fd_sc_hd__dfrtp_2
*I *2145:A I *D sky130_fd_sc_hd__clkbuf_4
*I *2075:CLK I *D sky130_fd_sc_hd__dfrtp_2
*I *2130:X O *D sky130_fd_sc_hd__clkbuf_8
*CAP
1 *2069:CLK 0
2 *2068:CLK 0.00058221
3 *2070:CLK 0
4 *2071:CLK 0
5 *2073:CLK 0.000153849
6 *2145:A 0
7 *2075:CLK 0
8 *2130:X 0.000171324
9 *542:88 8.03802e-05
10 *542:73 0.00142423
11 *542:60 0.000799412
12 *542:51 0.000499396
13 *542:43 0.000944368
14 *542:22 0.000514392
15 *542:14 0.000692786
16 *542:12 0.000332244
17 *542:10 0.000578524
18 *2068:CLK *764:10 3.20631e-05
19 *2073:CLK *769:8 0.000487153
20 *542:10 *605:8 1.83564e-05
21 *542:10 *700:46 0
22 *542:14 *769:8 0.000525417
23 *542:22 *1676:A 0.000308946
24 *542:22 *757:24 3.83498e-05
25 *542:22 *757:39 0.000100733
26 *542:22 *769:8 0.000428639
27 *542:22 *769:18 0.000136738
28 *542:22 *771:16 0.000112284
29 *542:43 *605:8 4.74809e-05
30 *542:43 *642:8 8.51432e-05
31 *542:43 *700:46 0
32 *542:43 *700:59 0
33 *542:43 *766:14 5.26101e-05
34 *542:43 *767:25 0
35 *542:51 *699:58 6.68587e-05
36 *542:51 *700:59 0
37 *542:51 *766:14 3.67526e-05
38 *542:60 *766:14 2.64459e-05
39 *542:73 *764:10 9.5258e-05
40 *542:73 *765:10 0
41 *542:73 *765:60 0
42 *542:73 *766:14 1.34094e-05
43 *542:88 *764:10 6.45006e-05
44 *542:88 *765:60 3.56295e-05
45 *1693:B *542:14 0.00014196
46 *2070:D *542:51 7.59794e-05
47 *196:10 *542:73 2.99613e-05
48 *305:8 *542:43 0
49 *306:10 *2073:CLK 0.00014698
50 *306:10 *542:10 0.000191148
51 *306:10 *542:14 2.64616e-05
52 *356:10 *542:22 0
53 *368:39 *542:22 2.69675e-05
54 *376:22 *542:10 5.3304e-05
55 *377:20 *542:10 5.94125e-05
56 *380:10 *542:22 0
57 *381:10 *542:22 8.06804e-06
58 *383:25 *542:10 0
59 *385:20 *542:22 8.60837e-05
60 *385:29 *542:22 0.000318548
61 *388:12 *542:43 0.000168754
62 *388:12 *542:60 7.869e-05
63 *388:12 *542:73 5.0534e-05
64 *388:25 *542:73 6.6869e-05
65 *389:10 *542:43 0.000141869
66 *389:14 *542:43 0.000274562
67 *390:8 *542:43 0
68 *395:10 *542:73 3.3746e-05
*RES
1 *2130:X *542:10 41.9357 
2 *542:10 *542:12 15 
3 *542:12 *542:14 5.86214 
4 *542:14 *542:22 44.3757 
5 *542:22 *2075:CLK 23 
6 *542:14 *2145:A 23 
7 *542:12 *2073:CLK 28.8829 
8 *542:10 *542:43 10.005 
9 *542:43 *542:51 37.2914 
10 *542:51 *2071:CLK 38 
11 *542:43 *542:60 1.20143 
12 *542:60 *2070:CLK 38 
13 *542:60 *542:73 27.9257 
14 *542:73 *2068:CLK 30.1879 
15 *542:73 *542:88 31.9057 
16 *542:88 *2069:CLK 23 
*END

*D_NET *543 0.00911418
*CONN
*I *2023:CLK I *D sky130_fd_sc_hd__dfxtp_2
*I *2021:CLK I *D sky130_fd_sc_hd__dfxtp_2
*I *2022:CLK I *D sky130_fd_sc_hd__dfxtp_2
*I *2024:CLK I *D sky130_fd_sc_hd__dfxtp_2
*I *2028:CLK I *D sky130_fd_sc_hd__dfxtp_2
*I *2027:CLK I *D sky130_fd_sc_hd__dfxtp_2
*I *2026:CLK I *D sky130_fd_sc_hd__dfxtp_2
*I *2131:X O *D sky130_fd_sc_hd__clkbuf_8
*CAP
1 *2023:CLK 0
2 *2021:CLK 0.000263946
3 *2022:CLK 0.000300135
4 *2024:CLK 2.30556e-05
5 *2028:CLK 0.000299248
6 *2027:CLK 0
7 *2026:CLK 4.23312e-05
8 *2131:X 0.000343352
9 *543:81 0.000263946
10 *543:66 0.000490558
11 *543:37 0.000823552
12 *543:22 0.00106023
13 *543:16 0.000974805
14 *543:10 0.000991929
15 *2021:CLK *1865:A 2.64616e-05
16 *2021:CLK *1865:C 0.00015033
17 *2021:CLK *1865:D 0.000135037
18 *2022:CLK *1865:D 0.000156658
19 *2022:CLK *679:64 0.000184768
20 *2022:CLK *697:24 0.000166522
21 *2028:CLK *702:10 4.93223e-05
22 *543:10 *669:10 2.92911e-06
23 *543:16 *669:10 3.82058e-06
24 *543:37 *603:12 0
25 *543:37 *686:10 0
26 *543:66 *1865:A 0.000189309
27 *543:66 *669:10 0.000137594
28 *543:66 *697:14 3.94619e-05
29 *543:66 *697:24 0.000447962
30 pcRegister[11] *543:22 0
31 *1874:B *2028:CLK 0.000656116
32 *1874:B *543:37 2.18286e-05
33 *2022:D *2022:CLK 6.09117e-05
34 *2023:D *2021:CLK 8.48502e-06
35 *2024:D *543:16 0.00014884
36 *2027:D *2028:CLK 0.000145274
37 *2131:A *543:10 8.57436e-05
38 *91:10 *543:22 0
39 *95:8 *543:37 0
40 *96:10 *543:37 0
41 *120:10 *543:22 0
42 *258:12 *2022:CLK 0
43 *258:12 *543:66 0
44 *261:12 *543:37 0
45 *487:20 *2022:CLK 4.81627e-05
46 *491:8 *2021:CLK 0.000103637
47 *492:95 *543:37 6.07611e-06
48 *495:16 *543:10 9.84794e-05
49 *495:43 *543:37 0
50 *497:10 *2028:CLK 3.3545e-05
51 *497:10 *543:37 1.78369e-05
52 *535:86 *543:10 0.000111978
*RES
1 *2131:X *543:10 29.0279 
2 *543:10 *543:16 7.45714 
3 *543:16 *543:22 23.8657 
4 *543:22 *2026:CLK 38.6214 
5 *543:22 *543:37 24.2179 
6 *543:37 *2027:CLK 23 
7 *543:37 *2028:CLK 32.86 
8 *543:16 *2024:CLK 23.4971 
9 *543:10 *543:66 21.4836 
10 *543:66 *2022:CLK 44.5457 
11 *543:66 *543:81 15 
12 *543:81 *2021:CLK 28.8829 
13 *543:81 *2023:CLK 23 
*END

*D_NET *544 0.0114389
*CONN
*I *2061:CLK I *D sky130_fd_sc_hd__dfrtp_2
*I *2100:CLK I *D sky130_fd_sc_hd__dfrtp_2
*I *2099:CLK I *D sky130_fd_sc_hd__dfrtp_2
*I *2087:CLK I *D sky130_fd_sc_hd__dfstp_2
*I *2058:CLK I *D sky130_fd_sc_hd__dfrtp_2
*I *2057:CLK I *D sky130_fd_sc_hd__dfrtp_2
*I *2141:A I *D sky130_fd_sc_hd__clkbuf_4
*I *2089:CLK I *D sky130_fd_sc_hd__dfrtp_2
*I *2132:X O *D sky130_fd_sc_hd__clkbuf_8
*CAP
1 *2061:CLK 0
2 *2100:CLK 0.000326639
3 *2099:CLK 0.000202694
4 *2087:CLK 0
5 *2058:CLK 2.36083e-05
6 *2057:CLK 2.95092e-05
7 *2141:A 0
8 *2089:CLK 8.99372e-05
9 *2132:X 0
10 *544:77 0.00026878
11 *544:60 0.000709644
12 *544:42 0.00103595
13 *544:40 0.000505533
14 *544:36 0.000604675
15 *544:34 0.000750898
16 *544:23 0.000760227
17 *544:6 0.00102551
18 *544:4 0.000840406
19 *2057:CLK *723:8 5.45541e-05
20 *2099:CLK *2157:A 9.66668e-05
21 *2099:CLK *680:52 4.839e-05
22 *2099:CLK *731:41 1.24376e-05
23 *2100:CLK *701:24 0.000100486
24 *544:23 *2086:CLK 0.000277383
25 *544:23 *681:94 5.00013e-05
26 *544:23 *737:10 0.000165003
27 *544:34 *1758:A2 7.45278e-05
28 *544:34 *555:84 0
29 *544:34 *732:22 9.88678e-05
30 *544:34 *735:8 2.60152e-05
31 *544:40 *1610:A 0.000346884
32 *544:42 *731:41 7.97083e-05
33 *544:60 *724:8 2.11157e-05
34 *544:60 *731:41 0.000337667
35 *544:77 *680:36 1.21972e-05
36 *1720:A2 *2100:CLK 5.58003e-05
37 *1726:B *2099:CLK 4.53082e-05
38 *1726:B *544:40 0.000120358
39 *1726:B *544:60 1.34995e-05
40 *1727:A1 *2099:CLK 0.000100477
41 *1727:A2 *2099:CLK 0.00035847
42 *1728:B1 *544:60 0.000102389
43 *1790:A *544:40 2.18665e-05
44 *2057:D *2057:CLK 5.45541e-05
45 *2058:RESET_B *2058:CLK 3.22051e-05
46 *2058:RESET_B *544:77 2.93335e-05
47 *2086:RESET_B *544:23 4.80749e-05
48 *140:10 *544:77 0.000109452
49 *185:10 *544:77 6.15719e-05
50 *295:10 *2100:CLK 9.79925e-05
51 *326:6 *2100:CLK 2.193e-05
52 *326:19 *2100:CLK 2.19403e-05
53 *329:44 *544:60 0.000287474
54 *403:12 *544:60 1.05658e-05
55 *410:8 *544:34 4.31366e-05
56 *410:8 *544:36 6.16537e-05
57 *410:8 *544:40 3.50862e-06
58 *411:31 *2099:CLK 9.79925e-05
59 *413:31 *544:34 8.54034e-05
60 *413:31 *544:36 9.60272e-05
61 *413:31 *544:40 8.15422e-05
62 *415:10 *544:42 5.5792e-05
63 *416:10 *544:60 5.56356e-05
64 *439:10 *544:34 7.03766e-05
65 *440:10 *544:34 0.000167452
66 *454:20 *544:23 0
67 *535:43 *544:23 5.12512e-05
*RES
1 *2132:X *544:4 23 
2 *544:4 *544:6 3.00357 
3 *544:6 *2089:CLK 24.5743 
4 *544:6 *544:23 41.9521 
5 *544:23 *2141:A 23 
6 *544:4 *544:34 28.5886 
7 *544:34 *544:36 2.61 
8 *544:36 *544:40 20.7793 
9 *544:40 *544:42 2.05071 
10 *544:42 *544:60 39.5375 
11 *544:60 *2057:CLK 39.0979 
12 *544:42 *544:77 34.7643 
13 *544:77 *2058:CLK 23.6214 
14 *544:77 *2087:CLK 23 
15 *544:40 *2099:CLK 29.3593 
16 *544:36 *2100:CLK 43.8829 
17 *544:34 *2061:CLK 38 
*END

*D_NET *545 0.00834179
*CONN
*I *2029:CLK I *D sky130_fd_sc_hd__dfxtp_2
*I *2014:CLK I *D sky130_fd_sc_hd__dfrtp_2
*I *2012:CLK I *D sky130_fd_sc_hd__dfrtp_2
*I *2146:A I *D sky130_fd_sc_hd__clkbuf_4
*I *2030:CLK I *D sky130_fd_sc_hd__dfxtp_2
*I *2091:CLK I *D sky130_fd_sc_hd__dfrtp_2
*I *2085:CLK I *D sky130_fd_sc_hd__dfrtp_2
*I *2086:CLK I *D sky130_fd_sc_hd__dfrtp_2
*I *2133:X O *D sky130_fd_sc_hd__clkbuf_8
*CAP
1 *2029:CLK 0.000504382
2 *2014:CLK 0
3 *2012:CLK 0.000265689
4 *2146:A 0
5 *2030:CLK 0.000115731
6 *2091:CLK 0
7 *2085:CLK 0.000490679
8 *2086:CLK 0.000288503
9 *2133:X 0.000177413
10 *545:86 0.000658725
11 *545:75 0.000559914
12 *545:68 0.000174695
13 *545:49 0.000580962
14 *545:45 0.00059025
15 *545:29 0.000552025
16 *545:10 0.000468511
17 *545:8 0.000455908
18 *2012:CLK *555:6 6.41125e-05
19 *2012:CLK *555:21 9.17664e-05
20 *2012:CLK *555:55 1.83408e-05
21 *2029:CLK *555:29 0
22 *2085:CLK *2230:A 0.000368594
23 *2085:CLK *735:52 4.06849e-05
24 *2086:CLK *2242:A 0
25 *2086:CLK *681:94 7.51868e-05
26 *545:8 *646:10 2.18286e-05
27 *545:10 *2242:A 0
28 *545:29 *2230:A 1.41077e-05
29 *545:86 *555:29 0
30 *1887:A1 *545:49 5.5792e-05
31 *1887:A2 *545:45 1.41002e-05
32 *1887:B1 *2030:CLK 2.71358e-05
33 *1887:B1 *545:49 2.27764e-05
34 *1887:B1 *545:68 5.62351e-05
35 *1888:B *2029:CLK 0
36 *2091:RESET_B *2085:CLK 4.58635e-05
37 *144:10 *2086:CLK 5.26101e-05
38 *148:8 *2029:CLK 0
39 *445:10 *545:8 0.00036186
40 *445:18 *545:45 1.0245e-05
41 *445:45 *545:49 3.19474e-05
42 *445:45 *545:68 4.41504e-05
43 *446:22 *545:68 0.000186231
44 *454:20 *2086:CLK 0.000144164
45 *454:20 *545:10 9.01159e-05
46 *454:20 *545:45 7.90598e-05
47 *501:14 *2030:CLK 2.45549e-06
48 *506:10 *2029:CLK 0
49 *506:10 *545:49 2.95526e-05
50 *506:10 *545:86 0
51 *535:57 *545:8 6.63694e-05
52 *535:61 *545:8 8.95381e-05
53 *535:63 *545:8 7.46513e-05
54 *535:76 *545:8 1.54359e-06
55 *544:23 *2086:CLK 0.000277383
*RES
1 *2133:X *545:8 43.3857 
2 *545:8 *545:10 2.61 
3 *545:10 *2086:CLK 45.5193 
4 *545:10 *545:29 16.1186 
5 *545:29 *2085:CLK 33.6471 
6 *545:29 *2091:CLK 23 
7 *545:8 *545:45 3.31429 
8 *545:45 *545:49 20.3857 
9 *545:49 *2030:CLK 25.0714 
10 *545:49 *545:68 34.4329 
11 *545:68 *2146:A 23 
12 *545:45 *545:75 2.61 
13 *545:75 *2012:CLK 43.3857 
14 *545:75 *545:86 2.96214 
15 *545:86 *2014:CLK 38 
16 *545:86 *2029:CLK 46.8243 
*END

*D_NET *546 0.00818729
*CONN
*I *2040:CLK I *D sky130_fd_sc_hd__dfxtp_2
*I *2039:CLK I *D sky130_fd_sc_hd__dfxtp_2
*I *2037:CLK I *D sky130_fd_sc_hd__dfxtp_2
*I *2034:CLK I *D sky130_fd_sc_hd__dfxtp_2
*I *2036:CLK I *D sky130_fd_sc_hd__dfxtp_2
*I *2025:CLK I *D sky130_fd_sc_hd__dfxtp_2
*I *2035:CLK I *D sky130_fd_sc_hd__dfxtp_2
*I *2134:X O *D sky130_fd_sc_hd__clkbuf_8
*CAP
1 *2040:CLK 0.000116757
2 *2039:CLK 0.000261285
3 *2037:CLK 0
4 *2034:CLK 0.00028163
5 *2036:CLK 0.000420938
6 *2025:CLK 0.000375164
7 *2035:CLK 0.000106601
8 *2134:X 4.11597e-05
9 *546:79 0.000661583
10 *546:16 0.000640079
11 *546:14 0.000777264
12 *546:12 0.000588531
13 *546:10 0.00021559
14 *546:8 0.000431401
15 *2025:CLK *2199:A 0
16 *2034:CLK *1895:A1 0.000142678
17 *2034:CLK *682:42 1.24376e-05
18 *2034:CLK *683:46 9.15377e-06
19 *2035:CLK *2199:A 0
20 *2035:CLK *564:46 5.79559e-05
21 *2036:CLK *563:24 1.83327e-05
22 *2036:CLK *569:8 6.38308e-05
23 *2036:CLK *683:33 0.000314165
24 *2040:CLK *591:25 7.50918e-05
25 *2040:CLK *602:35 0
26 *546:8 *567:10 2.64616e-05
27 *546:10 *683:46 1.12863e-05
28 *546:10 *683:57 0.000207543
29 *546:12 *683:46 0.000138983
30 *546:14 *2199:A 0
31 *546:14 *563:24 0.000107232
32 *546:14 *569:27 0
33 *546:14 *683:46 0.000136611
34 *546:16 *2199:A 0
35 *546:16 *683:46 1.46784e-05
36 *546:79 *1911:C 1.26098e-05
37 *546:79 *2274:A 0
38 *546:79 *591:25 0.000113466
39 *546:79 *683:57 0.00021967
40 *1902:B *2035:CLK 6.17437e-06
41 *2036:D *2036:CLK 8.15899e-06
42 *2039:D *2039:CLK 8.94508e-05
43 *269:8 *2025:CLK 0.000551836
44 *269:8 *546:16 6.38342e-05
45 *273:10 *546:79 0
46 *274:20 *2040:CLK 1.00084e-05
47 *492:95 *2025:CLK 5.79559e-05
48 *509:40 *2034:CLK 8.85386e-05
49 *512:51 *2034:CLK 0.000401824
50 *513:10 *2025:CLK 1.44001e-05
51 *514:10 *2025:CLK 3.48454e-05
52 *515:33 *2034:CLK 2.80394e-05
53 *516:10 *2034:CLK 0.000232049
*RES
1 *2134:X *546:8 38.6214 
2 *546:8 *546:10 2.96214 
3 *546:10 *546:12 2.25786 
4 *546:12 *546:14 4.01857 
5 *546:14 *546:16 2.61 
6 *546:16 *2035:CLK 40.3614 
7 *546:16 *2025:CLK 46.8657 
8 *546:14 *2036:CLK 46.3064 
9 *546:12 *2034:CLK 45.9336 
10 *546:10 *2037:CLK 38 
11 *546:8 *546:79 6.48357 
12 *546:79 *2039:CLK 42.4536 
13 *546:79 *2040:CLK 40.2579 
*END

*D_NET *547 0.00908508
*CONN
*I *2046:CLK I *D sky130_fd_sc_hd__dfxtp_2
*I *2045:CLK I *D sky130_fd_sc_hd__dfxtp_2
*I *2044:CLK I *D sky130_fd_sc_hd__dfxtp_2
*I *2108:CLK I *D sky130_fd_sc_hd__dfrtp_2
*I *2043:CLK I *D sky130_fd_sc_hd__dfxtp_2
*I *2041:CLK I *D sky130_fd_sc_hd__dfxtp_2
*I *2042:CLK I *D sky130_fd_sc_hd__dfxtp_2
*I *2147:A I *D sky130_fd_sc_hd__clkbuf_4
*I *2135:X O *D sky130_fd_sc_hd__clkbuf_8
*CAP
1 *2046:CLK 0.000148856
2 *2045:CLK 0
3 *2044:CLK 0
4 *2108:CLK 0.000237323
5 *2043:CLK 0
6 *2041:CLK 0
7 *2042:CLK 5.98189e-05
8 *2147:A 8.29085e-05
9 *2135:X 6.18608e-05
10 *547:79 0.000129479
11 *547:71 0.000373988
12 *547:65 0.000734957
13 *547:52 0.000672693
14 *547:45 0.000801997
15 *547:39 0.00100747
16 *547:30 0.000209653
17 *547:19 0.000285622
18 *547:8 0.000272613
19 *2046:CLK *657:10 0.000143722
20 *2147:A *1906:A1 0.000139352
21 *547:8 *670:29 7.03766e-05
22 *547:19 *670:29 0.000108962
23 *547:30 *670:29 2.24151e-05
24 *547:39 *1914:B1 3.39102e-05
25 *547:45 *625:20 6.68822e-05
26 *547:45 *625:24 5.50106e-05
27 *547:45 *670:14 8.60323e-05
28 *547:45 *670:23 1.14762e-05
29 *547:52 *1914:B1 4.87927e-05
30 *547:52 *657:10 2.36886e-05
31 *547:65 *657:10 4.73585e-05
32 *547:71 *657:10 2.27011e-05
33 *547:71 *661:27 5.5792e-05
34 *547:79 *651:8 0.000168121
35 *1918:A *547:52 3.92407e-05
36 *1918:A *547:65 0.000513251
37 *1918:A *547:71 1.43955e-05
38 *1918:B *547:52 1.90167e-05
39 *2042:D *2042:CLK 5.12254e-05
40 *2044:D *547:79 5.76359e-05
41 *114:10 *547:71 2.64616e-05
42 *169:91 *547:79 0.000213899
43 *272:12 *547:8 7.03766e-05
44 *272:12 *547:19 0.000113594
45 *272:12 *547:30 0.000104143
46 *272:12 *547:39 0.000114347
47 *272:12 *547:52 2.54043e-05
48 *276:8 *547:30 0.000163361
49 *276:8 *547:39 0.000259355
50 *276:8 *547:52 9.96322e-05
51 *277:18 *547:45 9.04092e-05
52 *278:18 *547:71 8.58827e-05
53 *278:18 *547:79 2.85501e-06
54 *279:20 *547:71 0.000178134
55 *323:16 *2108:CLK 0.000202179
56 *521:31 *547:65 2.33117e-05
57 *524:8 *547:71 9.79925e-05
58 *533:8 *2046:CLK 7.89883e-05
59 *533:8 *547:65 0.000256151
*RES
1 *2135:X *547:8 39.9057 
2 *547:8 *2147:A 39.5743 
3 *547:8 *547:19 3.31429 
4 *547:19 *2042:CLK 39.0979 
5 *547:19 *547:30 2.96214 
6 *547:30 *2041:CLK 38 
7 *547:30 *547:39 3.66643 
8 *547:39 *547:45 28.0293 
9 *547:45 *2043:CLK 23 
10 *547:39 *547:52 2.61 
11 *547:52 *2108:CLK 42.4329 
12 *547:52 *547:65 7.98536 
13 *547:65 *547:71 20.4582 
14 *547:71 *547:79 33.7079 
15 *547:79 *2044:CLK 23 
16 *547:71 *2045:CLK 23 
17 *547:65 *2046:CLK 40.7032 
*END

*D_NET *548 0.00745769
*CONN
*I *2120:CLK I *D sky130_fd_sc_hd__dfrtp_2
*I *2148:A I *D sky130_fd_sc_hd__clkbuf_4
*I *2038:CLK I *D sky130_fd_sc_hd__dfxtp_2
*I *2105:CLK I *D sky130_fd_sc_hd__dfrtp_2
*I *2118:CLK I *D sky130_fd_sc_hd__dfrtp_2
*I *2119:CLK I *D sky130_fd_sc_hd__dfrtp_2
*I *2033:CLK I *D sky130_fd_sc_hd__dfxtp_2
*I *2032:CLK I *D sky130_fd_sc_hd__dfxtp_2
*I *2136:X O *D sky130_fd_sc_hd__clkbuf_8
*CAP
1 *2120:CLK 0
2 *2148:A 0
3 *2038:CLK 0
4 *2105:CLK 0
5 *2118:CLK 0.000828368
6 *2119:CLK 3.60149e-05
7 *2033:CLK 0.000169218
8 *2032:CLK 0.00031517
9 *2136:X 6.41372e-05
10 *548:70 0.00025627
11 *548:62 0.000360455
12 *548:58 0.000492307
13 *548:36 0.000912118
14 *548:12 0.00076844
15 *548:10 0.000439526
16 *548:8 0.000495861
17 *548:6 6.41372e-05
18 *2032:CLK *1893:A2 3.47781e-05
19 *2032:CLK *1896:D 0.000114658
20 *2032:CLK *561:8 2.93845e-05
21 *2032:CLK *561:61 0.000195248
22 *2032:CLK *682:8 6.88885e-05
23 *2032:CLK *688:41 0.000108672
24 *2033:CLK *1890:A 5.3304e-05
25 *2033:CLK *2249:A 5.3304e-05
26 *2118:CLK *745:6 3.27534e-06
27 *2118:CLK *745:25 1.23032e-05
28 *2118:CLK *745:39 0.0002789
29 *2119:CLK *745:39 3.28357e-06
30 *548:12 *1893:A2 0.000156379
31 *548:12 *682:34 0
32 *548:12 *688:41 8.16356e-05
33 *548:12 *688:56 0
34 *548:36 *745:39 1.94812e-05
35 *548:58 *1803:A1 9.79925e-05
36 *548:58 *747:16 0.00010749
37 *2032:D *2032:CLK 1.64354e-05
38 *2119:D *2118:CLK 5.3304e-05
39 *149:10 *548:70 6.48049e-05
40 *154:8 *548:12 7.68956e-05
41 *155:8 *548:58 5.31311e-05
42 *232:8 *548:70 0
43 *457:10 *548:58 0.000100477
44 *457:10 *548:70 0
45 *468:45 *548:12 0.000218852
46 *508:12 *2033:CLK 7.28721e-05
47 *522:10 *548:70 7.24365e-05
48 *535:313 *548:6 7.61229e-06
49 *535:313 *548:58 9.98704e-05
50 *535:351 *548:70 0
*RES
1 *2136:X *548:6 24.0979 
2 *548:6 *548:8 15 
3 *548:8 *548:10 1.90571 
4 *548:10 *548:12 6.83571 
5 *548:12 *2032:CLK 45.395 
6 *548:12 *2033:CLK 41.0036 
7 *548:10 *548:36 15.6214 
8 *548:36 *2119:CLK 23.8493 
9 *548:36 *2118:CLK 34.9521 
10 *548:8 *548:58 23.5757 
11 *548:58 *548:62 2.07143 
12 *548:62 *548:70 35.0129 
13 *548:70 *2105:CLK 23 
14 *548:62 *2038:CLK 23 
15 *548:58 *2148:A 23 
16 *548:6 *2120:CLK 23 
*END

*D_NET *549 0.0100575
*CONN
*I *2114:CLK I *D sky130_fd_sc_hd__dfrtp_2
*I *2149:A I *D sky130_fd_sc_hd__clkbuf_4
*I *2122:CLK I *D sky130_fd_sc_hd__dfstp_2
*I *2110:CLK I *D sky130_fd_sc_hd__dfrtp_2
*I *2121:CLK I *D sky130_fd_sc_hd__dfstp_2
*I *2109:CLK I *D sky130_fd_sc_hd__dfrtp_2
*I *2107:CLK I *D sky130_fd_sc_hd__dfrtp_2
*I *2106:CLK I *D sky130_fd_sc_hd__dfrtp_2
*I *2137:X O *D sky130_fd_sc_hd__clkbuf_8
*CAP
1 *2114:CLK 0
2 *2149:A 0
3 *2122:CLK 0.000138642
4 *2110:CLK 0
5 *2121:CLK 0
6 *2109:CLK 9.22419e-05
7 *2107:CLK 0
8 *2106:CLK 0
9 *2137:X 0
10 *549:99 0.000285681
11 *549:86 0.000453783
12 *549:68 0.000422895
13 *549:55 0.000698778
14 *549:40 0.000945997
15 *549:28 0.000261465
16 *549:16 0.000377027
17 *549:12 0.00111323
18 *549:4 0.000726537
19 *2109:CLK *749:8 8.48502e-06
20 *2122:CLK *1999:A 0
21 *549:12 *688:56 0.00051839
22 *549:12 *747:25 8.1606e-05
23 *549:28 *2192:A 5.70419e-05
24 *549:28 *623:10 3.54739e-05
25 *549:40 *1651:C 0
26 *549:40 *2221:A 9.21347e-06
27 *549:40 *685:51 1.12487e-05
28 *549:40 *685:72 3.83059e-05
29 *549:40 *688:56 0.000632377
30 *549:40 *740:61 9.04083e-05
31 *549:40 *747:25 4.98718e-06
32 *549:40 *749:21 0
33 *549:55 *1650:A 0
34 *549:55 *1925:A1 5.99885e-05
35 *549:55 *2121:D 0.000135037
36 *549:55 *670:70 0
37 *549:55 *685:72 0.000121123
38 *549:55 *749:21 0
39 *549:68 *1925:A1 2.69729e-05
40 *549:68 *1999:A 1.21761e-05
41 *549:86 *687:36 0.000102389
42 *549:99 *2006:A 5.67058e-05
43 *549:99 *620:10 5.3304e-05
44 *549:99 *685:28 8.30566e-06
45 *549:99 *687:36 0.000191255
46 *1925:A3 *549:68 7.87243e-05
47 *1930:A1 *549:55 0.00015275
48 *2107:D *549:16 6.17437e-06
49 *2108:RESET_B *2109:CLK 4.9662e-05
50 *2109:D *2109:CLK 6.17437e-06
51 *2121:SET_B *549:55 4.97208e-05
52 *157:10 *549:12 6.25829e-05
53 *157:10 *549:40 0.000169683
54 *159:10 *549:40 0.000110913
55 *160:10 *549:68 0.000191429
56 *235:8 *549:40 0.000110913
57 *241:10 *549:99 0.000360007
58 *360:39 *549:68 0
59 *457:10 *549:28 5.44006e-05
60 *466:42 *549:99 0.000120644
61 *522:16 *549:28 0.000193769
62 *527:48 *549:55 0.000163284
63 *527:48 *549:68 6.46225e-05
64 *532:10 *2122:CLK 0.000133258
65 *535:290 *549:12 4.75236e-05
66 *535:290 *549:86 7.58413e-05
67 *535:290 *549:99 2.38751e-05
68 *535:294 *549:12 4.65288e-05
69 *535:296 *549:12 1.39431e-05
*RES
1 *2137:X *549:4 23 
2 *549:4 *549:12 26.7657 
3 *549:12 *549:16 16.5743 
4 *549:16 *549:28 35.7793 
5 *549:28 *2106:CLK 23 
6 *549:16 *2107:CLK 23 
7 *549:12 *549:40 11.4136 
8 *549:40 *2109:CLK 39.5743 
9 *549:40 *549:55 24.7357 
10 *549:55 *2121:CLK 23 
11 *549:55 *549:68 21.5871 
12 *549:68 *2110:CLK 38 
13 *549:68 *2122:CLK 40.61 
14 *549:4 *549:86 3.48 
15 *549:86 *2149:A 23 
16 *549:86 *549:99 37.7471 
17 *549:99 *2114:CLK 23 
*END

*D_NET *550 0.0100296
*CONN
*I *2150:A I *D sky130_fd_sc_hd__clkbuf_4
*I *2052:CLK I *D sky130_fd_sc_hd__dfrtp_2
*I *2051:CLK I *D sky130_fd_sc_hd__dfrtp_2
*I *2049:CLK I *D sky130_fd_sc_hd__dfrtp_2
*I *2047:CLK I *D sky130_fd_sc_hd__dfrtp_2
*I *2048:CLK I *D sky130_fd_sc_hd__dfrtp_2
*I *2053:CLK I *D sky130_fd_sc_hd__dfrtp_2
*I *2088:CLK I *D sky130_fd_sc_hd__dfrtp_2
*I *2138:X O *D sky130_fd_sc_hd__clkbuf_8
*CAP
1 *2150:A 0.00022499
2 *2052:CLK 0
3 *2051:CLK 0
4 *2049:CLK 0
5 *2047:CLK 0
6 *2048:CLK 1.91817e-05
7 *2053:CLK 0
8 *2088:CLK 9.8514e-05
9 *2138:X 0
10 *550:78 0.000551427
11 *550:65 0.000541544
12 *550:49 0.00131231
13 *550:36 0.00104637
14 *550:18 0.000130222
15 *550:14 0.000974017
16 *550:12 0.00069506
17 *550:10 0.00084035
18 *550:4 0.00050474
19 *2150:A *694:92 0.000272965
20 *550:10 *1974:A 0
21 *550:10 *694:122 0.000584028
22 *550:10 *713:86 2.64616e-05
23 *550:12 *681:32 0
24 *550:12 *728:27 0
25 *550:12 *731:122 0
26 *550:14 *728:27 0
27 *550:14 *731:122 0
28 *550:36 *731:109 2.95526e-05
29 *550:36 *731:122 0.000104578
30 *550:65 *554:41 0.000110238
31 *550:78 *557:50 0.000138747
32 *1762:A *550:10 1.65142e-05
33 *1762:B *550:10 0.000100477
34 *1768:A1 *550:65 8.98641e-05
35 *1769:A1 *550:10 5.28004e-05
36 *188:8 *550:14 4.31366e-05
37 *188:8 *550:36 6.38947e-05
38 *227:10 *550:36 0.000143166
39 *283:10 *550:78 3.87236e-05
40 *285:10 *550:12 3.81391e-05
41 *427:18 *2150:A 0.000187434
42 *427:18 *550:10 2.99261e-05
43 *433:20 *550:65 0.000303431
44 *435:12 *550:36 0.000161804
45 *435:12 *550:49 1.61385e-05
46 *436:33 *550:10 0.000100371
47 *441:23 *550:10 9.49693e-05
48 *441:23 *550:12 0.000140661
49 *442:31 *550:10 2.52012e-05
50 *443:8 *550:10 7.77976e-05
51 *443:8 *550:12 9.98995e-05
*RES
1 *2138:X *550:4 23 
2 *550:4 *550:10 24.7771 
3 *550:10 *550:12 11.4136 
4 *550:12 *550:14 2.96214 
5 *550:14 *550:18 15.6214 
6 *550:18 *2088:CLK 24.5743 
7 *550:18 *2053:CLK 23 
8 *550:14 *550:36 31.0121 
9 *550:36 *2048:CLK 23.4971 
10 *550:36 *550:49 3.16929 
11 *550:49 *550:65 41.02 
12 *550:65 *2047:CLK 23 
13 *550:49 *550:78 38.6793 
14 *550:78 *2049:CLK 23 
15 *550:12 *2051:CLK 38 
16 *550:10 *2052:CLK 38 
17 *550:4 *2150:A 29.815 
*END

*D_NET *551 0.0108276
*CONN
*I *2055:CLK I *D sky130_fd_sc_hd__dfrtp_2
*I *2082:CLK I *D sky130_fd_sc_hd__dfstp_2
*I *2090:CLK I *D sky130_fd_sc_hd__dfrtp_2
*I *2151:A I *D sky130_fd_sc_hd__clkbuf_4
*I *2060:CLK I *D sky130_fd_sc_hd__dfrtp_2
*I *2031:CLK I *D sky130_fd_sc_hd__dfxtp_2
*I *2059:CLK I *D sky130_fd_sc_hd__dfrtp_2
*I *2084:CLK I *D sky130_fd_sc_hd__dfrtp_2
*I *2139:X O *D sky130_fd_sc_hd__clkbuf_8
*CAP
1 *2055:CLK 0.000176767
2 *2082:CLK 0
3 *2090:CLK 0
4 *2151:A 0
5 *2060:CLK 0
6 *2031:CLK 0.000572234
7 *2059:CLK 0
8 *2084:CLK 0
9 *2139:X 8.0747e-05
10 *551:78 0.000291279
11 *551:69 0.000628826
12 *551:37 0.000467213
13 *551:33 0.00116964
14 *551:24 0.000460256
15 *551:18 0.00105035
16 *551:12 0.000754398
17 *551:10 0.000548426
18 *551:8 8.0747e-05
19 *2031:CLK *1628:B 0.000185104
20 *2031:CLK *1629:B 5.79559e-05
21 *551:12 *1941:A 5.3304e-05
22 *551:18 *1941:A 0.000183544
23 *551:18 *727:6 6.55954e-05
24 *551:18 *727:16 4.98398e-05
25 *551:24 *555:80 2.50118e-05
26 *551:24 *681:69 0.000409468
27 *551:33 *1628:B 1.01436e-05
28 *551:33 *779:10 0.000161121
29 *551:37 *1616:A 0.000227208
30 *551:37 *1721:A1 0.000115
31 *551:37 *2185:A 5.50049e-05
32 *551:37 *583:6 0.000198973
33 *551:69 *1941:A 0.000368598
34 *551:69 *1979:A 5.56279e-05
35 *551:69 *690:75 0.000199851
36 *551:69 *694:77 0.000331084
37 *551:78 *694:77 1.12863e-05
38 *1627:C *551:37 1.03955e-05
39 *1632:A2 *551:37 1.46586e-05
40 *1632:B1 *551:37 6.17437e-06
41 *1775:A2 *551:24 0.000234534
42 *134:10 *2055:CLK 6.42902e-05
43 *134:10 *551:78 9.98995e-05
44 *179:10 *551:18 5.5792e-05
45 *294:10 *551:37 0.000119323
46 *318:8 *551:33 0
47 *330:25 *551:8 0.000138593
48 *332:6 *551:37 0.000740187
49 *332:23 *551:37 8.52481e-05
50 *333:18 *551:24 6.12912e-05
51 *333:18 *551:33 1.2972e-05
52 *340:30 *551:24 0
53 *340:30 *551:33 0
54 *342:8 *2031:CLK 1.01436e-05
55 *343:16 *2031:CLK 1.83327e-05
56 *344:10 *2031:CLK 9.27917e-05
57 *344:10 *551:33 1.83564e-05
*RES
1 *2139:X *551:8 39.9057 
2 *551:8 *551:10 15 
3 *551:10 *551:12 0.621429 
4 *551:12 *551:18 13.05 
5 *551:18 *551:24 24.3007 
6 *551:24 *2084:CLK 38 
7 *551:24 *551:33 2.96214 
8 *551:33 *551:37 28.9614 
9 *551:37 *2059:CLK 23 
10 *551:33 *2031:CLK 48.8543 
11 *551:18 *2060:CLK 23 
12 *551:12 *2151:A 23 
13 *551:10 *551:69 26.9107 
14 *551:69 *2090:CLK 38 
15 *551:69 *551:78 2.96214 
16 *551:78 *2082:CLK 38 
17 *551:78 *2055:CLK 41.2314 
*END

*D_NET *552 0.00877288
*CONN
*I *1736:A2 I *D sky130_fd_sc_hd__o31a_2
*I *1735:A1 I *D sky130_fd_sc_hd__o21a_2
*I *1791:A2 I *D sky130_fd_sc_hd__a21o_2
*I *1737:B I *D sky130_fd_sc_hd__nand2_2
*I *1611:A I *D sky130_fd_sc_hd__inv_2
*I *1748:A I *D sky130_fd_sc_hd__or3b_2
*I *2094:Q O *D sky130_fd_sc_hd__dfstp_2
*CAP
1 *1736:A2 0.000313034
2 *1735:A1 1.92001e-05
3 *1791:A2 0
4 *1737:B 0
5 *1611:A 0
6 *1748:A 0.00012681
7 *2094:Q 0.000420845
8 *552:62 0.00109
9 *552:44 0.000289989
10 *552:29 0.000382447
11 *552:23 0.00102356
12 *552:12 0.000300146
13 *552:10 0.000420845
14 *1735:A1 *571:6 5.58003e-05
15 *1736:A2 *1612:A 0.000240142
16 *1736:A2 *1633:C 5.3304e-05
17 *1736:A2 *1734:A 8.52094e-06
18 *1736:A2 *1736:B1 5.3304e-05
19 *1736:A2 *692:90 0.000150723
20 *1736:A2 *694:67 0.000113965
21 *1736:A2 *707:14 1.01436e-05
22 *552:23 *1748:C_N 0.00012103
23 *552:29 *553:34 0
24 *552:29 *692:59 0.000249909
25 *552:44 *1737:A 7.27182e-05
26 *552:44 *553:8 6.16531e-05
27 *552:44 *553:34 0.000130433
28 *552:44 *692:59 9.84794e-05
29 *552:62 *1734:A 1.79668e-05
30 *552:62 *1748:C_N 2.02872e-05
31 *552:62 *1791:B1 0.00010018
32 *552:62 *553:34 4.66047e-05
33 *552:62 *556:14 1.22906e-05
34 *552:62 *556:20 9.03979e-05
35 *552:62 *571:21 0.000376108
36 *552:62 *616:10 0.000159661
37 *552:62 *692:59 0
38 *552:62 *716:53 0.000320642
39 *552:62 *729:10 0.000103009
40 *1743:A3 *552:62 7.37814e-06
41 *1765:B *552:10 7.76364e-06
42 *1793:B *552:62 0.000247082
43 *2049:RESET_B *552:44 9.41704e-05
44 *2050:CLK *1735:A1 5.3304e-05
45 *13:10 *552:29 0.000152543
46 *13:10 *552:44 0
47 *131:10 *552:62 0
48 *183:10 *552:62 4.28979e-05
49 *321:14 *1736:A2 5.93698e-05
50 *420:10 *1736:A2 7.16552e-05
51 *420:10 *552:62 1.13812e-05
52 *423:26 *552:10 0.000324751
53 *425:14 *552:62 3.16195e-05
54 *426:22 *552:62 0.000327903
55 *430:8 *1748:A 2.45549e-06
56 *431:8 *552:10 0.000169674
57 *432:10 *552:10 5.97612e-05
58 *537:28 *552:44 5.50106e-05
*RES
1 *2094:Q *552:10 45.8507 
2 *552:10 *552:12 15 
3 *552:12 *1748:A 25.0714 
4 *552:12 *552:23 3.00357 
5 *552:23 *552:29 33.6664 
6 *552:29 *1611:A 23 
7 *552:29 *552:44 36.7114 
8 *552:44 *1737:B 23 
9 *552:23 *1791:A2 23 
10 *552:23 *552:62 34.8443 
11 *552:62 *1735:A1 38.6214 
12 *552:62 *1736:A2 46.2029 
*END

*D_NET *553 0.00338994
*CONN
*I *1737:A I *D sky130_fd_sc_hd__nand2_2
*I *1791:A1 I *D sky130_fd_sc_hd__a21o_2
*I *1748:C_N I *D sky130_fd_sc_hd__or3b_2
*I *2235:A I *D sky130_fd_sc_hd__dlygate4sd3_1
*I *1739:A I *D sky130_fd_sc_hd__nor2_2
*I *2049:Q O *D sky130_fd_sc_hd__dfrtp_2
*CAP
1 *1737:A 0.000235425
2 *1791:A1 2.34823e-05
3 *1748:C_N 0.000159673
4 *2235:A 3.6708e-05
5 *1739:A 0.000212155
6 *2049:Q 0
7 *553:34 0.000461999
8 *553:8 0.00039325
9 *553:6 0.00042323
10 *553:4 0.000235425
11 *2235:A *701:24 5.3304e-05
12 *553:34 *1791:B1 5.50049e-05
13 *553:34 *692:42 0
14 *553:34 *692:59 6.38947e-05
15 *2049:RESET_B *1737:A 5.3304e-05
16 *13:10 *553:8 0
17 *176:8 *1739:A 0.000220665
18 *176:8 *553:8 0.000244303
19 *220:10 *553:34 0
20 *537:28 *1737:A 6.53942e-05
21 *552:23 *1748:C_N 0.00012103
22 *552:29 *553:34 0
23 *552:44 *1737:A 7.27182e-05
24 *552:44 *553:8 6.16531e-05
25 *552:44 *553:34 0.000130433
26 *552:62 *1748:C_N 2.02872e-05
27 *552:62 *553:34 4.66047e-05
*RES
1 *2049:Q *553:4 23 
2 *553:4 *553:6 15 
3 *553:6 *553:8 3.66643 
4 *553:8 *1739:A 41.5836 
5 *553:8 *2235:A 38.6214 
6 *553:6 *553:34 21.2971 
7 *553:34 *1748:C_N 26.0036 
8 *553:34 *1791:A1 23.4971 
9 *553:4 *1737:A 26.9979 
*END

*D_NET *554 0.00387048
*CONN
*I *2198:A I *D sky130_fd_sc_hd__dlygate4sd3_1
*I *1754:B2 I *D sky130_fd_sc_hd__a221o_2
*I *1723:A1 I *D sky130_fd_sc_hd__a21oi_2
*I *2047:Q O *D sky130_fd_sc_hd__dfrtp_2
*CAP
1 *2198:A 0
2 *1754:B2 0
3 *1723:A1 0.000435486
4 *2047:Q 0.000130278
5 *554:41 0.000368445
6 *554:16 0.00105655
7 *554:12 0.000313855
8 *554:8 0.000191515
9 *1723:A1 *1751:B 0.000290027
10 *1723:A1 *1768:B1 0.000228903
11 *1723:A1 *730:14 5.67058e-05
12 *554:16 *1768:B1 0.000144501
13 *554:41 *557:22 0.000142363
14 *554:41 *689:17 7.84772e-05
15 *1768:A1 *1723:A1 7.42621e-05
16 *1768:A1 *554:41 0.000184396
17 *174:10 *554:41 5.12512e-05
18 *411:8 *1723:A1 1.32314e-05
19 *550:65 *554:41 0.000110238
*RES
1 *2047:Q *554:8 40.2579 
2 *554:8 *554:12 16.0979 
3 *554:12 *554:16 4.93 
4 *554:16 *1723:A1 33.1707 
5 *554:16 *554:41 38.7673 
6 *554:41 *1754:B2 23 
7 *554:12 *2198:A 23 
*END

*D_NET *555 0.0120878
*CONN
*I *1782:B I *D sky130_fd_sc_hd__nand2b_2
*I *1712:A1 I *D sky130_fd_sc_hd__a31o_2
*I *1774:A2 I *D sky130_fd_sc_hd__a21boi_2
*I *1719:B I *D sky130_fd_sc_hd__and3_2
*I *1775:A1 I *D sky130_fd_sc_hd__a21oi_2
*I *1628:A I *D sky130_fd_sc_hd__nand3_2
*I *1627:A I *D sky130_fd_sc_hd__and3_2
*I *1773:A I *D sky130_fd_sc_hd__and2_2
*I *2012:Q O *D sky130_fd_sc_hd__dfrtp_2
*CAP
1 *1782:B 0.000178374
2 *1712:A1 0.000592783
3 *1774:A2 6.23652e-05
4 *1719:B 0.000299188
5 *1775:A1 1.42359e-05
6 *1628:A 0.000311113
7 *1627:A 8.07685e-05
8 *1773:A 0
9 *2012:Q 0.000416914
10 *555:86 0.000412124
11 *555:84 0.000951122
12 *555:80 0.00125267
13 *555:55 0.00113379
14 *555:31 0.000391881
15 *555:29 0.000399843
16 *555:21 0.000964932
17 *555:14 0.000233237
18 *555:6 0.000862203
19 *1628:A *1628:B 9.79608e-05
20 *1628:A *779:10 4.2812e-06
21 *1712:A1 *1712:A3 5.56279e-05
22 *1719:B *1719:A 7.83852e-05
23 *1719:B *1719:C 2.13733e-05
24 *1719:B *579:18 7.91596e-05
25 *1719:B *732:22 5.50049e-05
26 *1774:A2 *579:12 5.3304e-05
27 *1775:A1 *681:50 7.82833e-06
28 *1775:A1 *681:69 1.12796e-05
29 *1782:B *701:43 0.000140259
30 *555:14 *646:10 0
31 *555:29 *1627:B 0.000100061
32 *555:55 *1933:A 0.000100032
33 *555:55 *681:50 5.47983e-06
34 *555:55 *681:69 3.10188e-05
35 *555:80 *681:50 0
36 *555:80 *681:69 1.61385e-05
37 *555:80 *681:94 0
38 *555:80 *701:43 0.000140259
39 *555:80 *735:8 0
40 *555:80 *735:52 0.000138145
41 *555:80 *735:63 0.000157063
42 *555:84 *1758:A2 0
43 *555:84 *701:43 0.000169164
44 *555:86 *1758:A2 0
45 *555:86 *579:18 1.83667e-05
46 *555:86 *701:43 1.7992e-05
47 *555:86 *732:22 0
48 *1632:B1 *555:29 7.12821e-05
49 *1760:B1 *555:80 6.23235e-05
50 *1775:A2 *555:80 5.5792e-05
51 *1776:B *555:29 9.41704e-05
52 *1788:B1 *555:14 9.65021e-05
53 *1887:A1 *555:14 0.000100486
54 *2012:CLK *555:6 6.41125e-05
55 *2012:CLK *555:21 9.17664e-05
56 *2012:CLK *555:55 1.83408e-05
57 *2012:RESET_B *555:6 4.72762e-05
58 *2029:CLK *555:29 0
59 *2183:A *1712:A1 1.14762e-05
60 *2183:A *1774:A2 0.000137651
61 *133:16 *1712:A1 1.39431e-05
62 *133:16 *1719:B 6.7911e-05
63 *143:10 *555:80 0.000114776
64 *218:8 *555:80 0
65 *250:10 *555:14 3.7122e-06
66 *250:10 *555:29 1.6891e-05
67 *333:18 *1628:A 1.02799e-05
68 *333:39 *1628:A 7.51623e-05
69 *339:10 *555:80 0.000232269
70 *345:12 *1627:A 5.44889e-06
71 *345:12 *555:29 5.86204e-05
72 *413:31 *1712:A1 0.000200269
73 *413:31 *1719:B 7.75329e-06
74 *439:10 *555:80 6.38845e-05
75 *439:10 *555:84 0
76 *441:8 *1782:B 1.21972e-05
77 *445:18 *555:14 7.52747e-05
78 *448:10 *1627:A 1.46784e-05
79 *448:10 *555:29 0.000162649
80 *448:10 *555:55 2.01969e-05
81 *449:12 *555:80 0
82 *544:34 *555:84 0
83 *545:86 *555:29 0
84 *551:24 *555:80 2.50118e-05
*RES
1 *2012:Q *555:6 28.8621 
2 *555:6 *555:14 34.3086 
3 *555:14 *1773:A 23 
4 *555:6 *555:21 3.00357 
5 *555:21 *555:29 38.8864 
6 *555:29 *555:31 15 
7 *555:31 *1627:A 38.8493 
8 *555:31 *1628:A 43.0129 
9 *555:21 *555:55 5.40643 
10 *555:55 *1775:A1 23.4971 
11 *555:55 *555:80 46.4471 
12 *555:80 *555:84 21.8357 
13 *555:84 *555:86 1.20143 
14 *555:86 *1719:B 44.235 
15 *555:86 *1774:A2 39.5743 
16 *555:84 *1712:A1 46.2443 
17 *555:80 *1782:B 25.9 
*END

*D_NET *556 0.0129428
*CONN
*I *1637:A I *D sky130_fd_sc_hd__and2_2
*I *1638:A I *D sky130_fd_sc_hd__nand2_2
*I *1717:A I *D sky130_fd_sc_hd__nand3_2
*I *1793:A I *D sky130_fd_sc_hd__nand2_2
*I *1734:A I *D sky130_fd_sc_hd__nand2_2
*I *1843:A2 I *D sky130_fd_sc_hd__a21boi_2
*I *1796:B I *D sky130_fd_sc_hd__and3_2
*I *1766:B1_N I *D sky130_fd_sc_hd__a21boi_2
*I *1797:A1 I *D sky130_fd_sc_hd__a211o_2
*I *2050:Q O *D sky130_fd_sc_hd__dfrtp_2
*CAP
1 *1637:A 0.000165929
2 *1638:A 3.4526e-05
3 *1717:A 0
4 *1793:A 0.000229134
5 *1734:A 8.52955e-05
6 *1843:A2 0.000778506
7 *1796:B 0
8 *1766:B1_N 0
9 *1797:A1 1.64097e-05
10 *2050:Q 0.000836945
11 *556:106 0.00034321
12 *556:88 0.000707597
13 *556:82 0.000621219
14 *556:80 0.000755869
15 *556:41 0.000442865
16 *556:31 0.00068398
17 *556:20 0.000464334
18 *556:14 0.000369111
19 *556:12 0.000224961
20 *556:10 0.000836945
21 *1734:A *571:21 1.0092e-05
22 *1734:A *716:38 0.000234938
23 *1793:A *1717:B 5.54148e-05
24 *1793:A *595:10 9.84851e-05
25 *1793:A *617:10 5.37348e-06
26 *556:10 *1735:B1 5.3304e-05
27 *556:10 *692:78 9.41704e-05
28 *556:14 *571:21 0.00037397
29 *556:14 *716:38 0.00039032
30 *556:20 *1796:A 2.18506e-05
31 *556:20 *692:78 6.32688e-05
32 *556:20 *716:38 6.16531e-05
33 *556:31 *1796:A 2.07242e-05
34 *556:41 *716:20 8.62876e-05
35 *556:88 *1717:B 5.50049e-05
36 *556:88 *595:10 2.4754e-05
37 *556:88 *694:16 0
38 *556:88 *694:27 0
39 *556:88 *694:38 0
40 *556:106 *694:38 0
41 *556:106 *694:53 0
42 *1637:B *1637:A 0.000212414
43 *1637:B *556:106 1.13812e-05
44 *1736:A2 *1734:A 8.52094e-06
45 *1766:A2 *556:41 0.000339324
46 *1793:B *1793:A 4.00259e-06
47 *1794:B1 *556:88 0
48 *1797:A2 *556:20 0.000184527
49 *1797:B1 *1797:A1 2.02517e-05
50 *1797:B1 *556:31 0.000102093
51 *2050:CLK *556:10 5.61413e-05
52 *2050:D *556:10 0.000264232
53 *2083:CLK *1637:A 7.48414e-05
54 *2095:RESET_B *556:80 0.000394263
55 *2152:A *556:88 0
56 *13:10 *556:41 0
57 *131:10 *1843:A2 3.28708e-05
58 *131:10 *556:80 0.00026808
59 *137:8 *556:88 0.000114074
60 *284:10 *556:41 9.82009e-05
61 *349:19 *556:88 0.000111852
62 *349:19 *556:106 0.000264153
63 *351:10 *1637:A 0.000138747
64 *351:10 *1638:A 1.84917e-05
65 *420:10 *1734:A 0.000167522
66 *426:92 *556:41 2.31591e-05
67 *444:8 *556:41 1.01436e-05
68 *455:12 *1793:A 9.50411e-05
69 *455:12 *556:88 0.000561356
70 *552:62 *1734:A 1.79668e-05
71 *552:62 *556:14 1.22906e-05
72 *552:62 *556:20 9.03979e-05
*RES
1 *2050:Q *556:10 35.2214 
2 *556:10 *556:12 15 
3 *556:12 *556:14 5.42714 
4 *556:14 *556:20 20.1371 
5 *556:20 *1797:A1 23.4971 
6 *556:20 *556:31 3.85286 
7 *556:31 *556:41 38.3893 
8 *556:41 *1766:B1_N 23 
9 *556:31 *1796:B 23 
10 *556:14 *1843:A2 38.3832 
11 *556:12 *1734:A 41.3143 
12 *1843:A2 *556:80 35.5736 
13 *556:80 *556:82 15 
14 *556:82 *556:88 25.9786 
15 *556:88 *1793:A 28.4271 
16 *556:88 *1717:A 23 
17 *556:82 *556:106 3.66643 
18 *556:106 *1638:A 38.6214 
19 *556:106 *1637:A 42.5364 
*END

*D_NET *557 0.00450875
*CONN
*I *2197:A I *D sky130_fd_sc_hd__dlygate4sd3_1
*I *1754:A1 I *D sky130_fd_sc_hd__a221o_2
*I *1724:A1 I *D sky130_fd_sc_hd__a21oi_2
*I *2048:Q O *D sky130_fd_sc_hd__dfrtp_2
*CAP
1 *2197:A 0
2 *1754:A1 0
3 *1724:A1 0
4 *2048:Q 0.000155399
5 *557:50 0.00037741
6 *557:32 0.000481312
7 *557:22 0.000871482
8 *557:14 0.000912348
9 *557:10 0.000300168
10 *557:10 *1937:A 1.77552e-05
11 *557:10 *2258:A 3.98882e-06
12 *557:14 *689:6 5.56356e-05
13 *557:14 *689:44 7.71199e-05
14 *557:22 *689:6 0.000189176
15 *557:22 *689:17 7.25554e-05
16 *557:32 *634:8 7.84105e-05
17 *557:32 *689:17 0.000181215
18 *557:50 *701:24 9.90115e-05
19 *2048:RESET_B *557:10 1.05235e-05
20 *174:10 *557:22 5.56356e-05
21 *175:10 *557:10 8.50366e-05
22 *412:8 *557:32 1.35999e-05
23 *434:12 *557:32 0.000167514
24 *434:25 *557:32 2.23427e-05
25 *550:78 *557:50 0.000138747
26 *554:41 *557:22 0.000142363
*RES
1 *2048:Q *557:10 41.2314 
2 *557:10 *557:14 18.0036 
3 *557:14 *557:22 7.00143 
4 *557:22 *557:32 39.2179 
5 *557:32 *1724:A1 23 
6 *557:22 *1754:A1 23 
7 *557:14 *557:50 38.1821 
8 *557:50 *2197:A 23 
*END

*D_NET *558 0.00191939
*CONN
*I *2168:A I *D sky130_fd_sc_hd__clkdlybuf4s25_1
*I *2253:X O *D sky130_fd_sc_hd__clkdlybuf4s25_1
*CAP
1 *2168:A 0.000195664
2 *2253:X 0.000290789
3 *558:8 0.000486453
4 *2168:A *691:36 5.50106e-05
5 *2168:A *701:10 3.7122e-06
6 *558:8 *2259:A 0.000240988
7 *558:8 *691:21 0.00016501
8 *558:8 *693:21 0
9 *51:10 *558:8 0.000481765
*RES
1 *2253:X *558:8 45.8921 
2 *558:8 *2168:A 41.48 
*END

*D_NET *559 0.00698881
*CONN
*I *2267:A I *D sky130_fd_sc_hd__clkdlybuf4s25_1
*I *1609:A I *D sky130_fd_sc_hd__inv_2
*I *1884:A I *D sky130_fd_sc_hd__and3_2
*I *2030:Q O *D sky130_fd_sc_hd__dfxtp_2
*CAP
1 *2267:A 0
2 *1609:A 0
3 *1884:A 0
4 *2030:Q 0
5 *559:50 0.00123682
6 *559:37 0.000102533
7 *559:31 0.00053151
8 *559:16 0.000585766
9 *559:6 0.00139361
10 *559:16 *1879:A 1.21859e-05
11 *559:31 *1871:A 3.7122e-06
12 *559:31 *1871:B 0.000139352
13 *559:31 *1879:B 0.000156403
14 *559:37 *2240:A 1.14452e-05
15 *559:37 *675:24 0.000194318
16 *559:50 *1879:A 2.64108e-05
17 *559:50 *2180:A 5.56279e-05
18 *559:50 *679:112 0.000284544
19 *559:50 *679:129 2.18409e-05
20 *559:50 *686:27 0.000445112
21 *559:50 *703:10 0
22 *559:50 *704:10 4.63375e-05
23 *559:50 *704:12 9.22744e-05
24 *1871:C *559:31 2.7237e-05
25 *1878:C *559:50 4.21062e-05
26 *1884:C *559:16 5.67058e-05
27 *1884:C *559:31 8.43466e-05
28 *259:12 *559:50 0.000105057
29 *262:10 *559:50 0.000139977
30 *447:12 *559:31 9.41704e-05
31 *447:18 *559:31 4.04695e-05
32 *447:157 *559:16 8.78864e-05
33 *447:157 *559:50 1.13812e-05
34 *491:23 *559:16 4.41821e-06
35 *491:44 *559:16 4.34822e-05
36 *492:43 *559:37 2.7003e-05
37 *494:10 *559:16 8.36198e-05
38 *494:10 *559:50 0.000202029
39 *495:16 *559:31 4.03039e-05
40 *499:8 *559:50 0
41 *499:12 *559:50 5.12254e-05
42 *499:25 *559:50 9.63815e-05
43 *504:6 *559:31 5.3304e-05
44 *505:8 *559:31 0.000209128
45 *535:76 *559:31 6.59904e-05
46 *535:86 *559:16 2.95526e-05
47 *535:86 *559:31 2.95423e-05
48 *535:106 *559:16 2.36931e-05
*RES
1 *2030:Q *559:6 38 
2 *559:6 *559:16 18.9979 
3 *559:16 *1884:A 23 
4 *559:16 *559:31 39.4457 
5 *559:31 *559:37 32.61 
6 *559:37 *1609:A 23 
7 *559:6 *559:50 40.2921 
8 *559:50 *2267:A 23 
*END

*D_NET *560 0.00550873
*CONN
*I *1891:B I *D sky130_fd_sc_hd__and3_2
*I *2268:A I *D sky130_fd_sc_hd__clkdlybuf4s25_1
*I *2193:A I *D sky130_fd_sc_hd__dlygate4sd3_1
*I *1608:A I *D sky130_fd_sc_hd__inv_2
*I *2031:Q O *D sky130_fd_sc_hd__dfxtp_2
*CAP
1 *1891:B 0
2 *2268:A 0
3 *2193:A 7.37636e-05
4 *1608:A 0.000198424
5 *2031:Q 5.67095e-05
6 *560:44 0.000885652
7 *560:34 0.00112681
8 *560:19 0.00045567
9 *560:8 0.000395882
10 *1608:A *672:10 8.62783e-05
11 *2193:A *1888:A 0.000139352
12 *560:19 *1891:A 0
13 *560:19 *592:8 2.5415e-05
14 *560:19 *672:10 0.000272321
15 *560:34 *1891:A 0
16 *560:34 *561:16 0.000272377
17 *560:34 *561:37 0
18 *560:34 *672:10 8.4047e-05
19 *560:44 *1898:A1 0.00044107
20 *560:44 *2233:A 0.000187017
21 *560:44 *561:37 0.000194309
22 *560:44 *672:10 0
23 *560:44 *688:41 0.000310641
24 *1888:B *1608:A 2.29895e-05
25 *1888:B *2193:A 1.32314e-05
26 *1891:C *560:19 0
27 *1892:C *560:44 9.67842e-05
28 *1898:A2 *560:44 4.21378e-05
29 *265:6 *560:8 1.59094e-05
30 *501:20 *1608:A 6.07611e-06
31 *504:19 *1608:A 0
32 *504:19 *560:19 0
33 *506:10 *1608:A 6.88552e-05
34 *508:12 *560:44 3.70094e-05
*RES
1 *2031:Q *560:8 38.6214 
2 *560:8 *1608:A 42.7229 
3 *560:8 *560:19 3.66643 
4 *560:19 *2193:A 39.5743 
5 *560:19 *560:34 19.205 
6 *560:34 *560:44 48.9743 
7 *560:44 *2268:A 23 
8 *560:34 *1891:B 23 
*END

*D_NET *561 0.00925349
*CONN
*I *1893:A2 I *D sky130_fd_sc_hd__a31o_2
*I *2249:A I *D sky130_fd_sc_hd__dlygate4sd3_1
*I *1896:C I *D sky130_fd_sc_hd__and4_2
*I *2269:A I *D sky130_fd_sc_hd__clkdlybuf4s25_1
*I *1891:A I *D sky130_fd_sc_hd__and3_2
*I *2032:Q O *D sky130_fd_sc_hd__dfxtp_2
*CAP
1 *1893:A2 0.000120867
2 *2249:A 0.000269333
3 *1896:C 0
4 *2269:A 0
5 *1891:A 0.000151459
6 *2032:Q 0.00027147
7 *561:61 0.000465292
8 *561:49 0.00099226
9 *561:37 0.00148009
10 *561:16 0.000966428
11 *561:8 0.000673702
12 *1891:A *1888:A 7.88926e-05
13 *1891:A *2200:A 0
14 *1893:A2 *1890:B 5.24393e-05
15 *1893:A2 *1893:A3 4.16661e-05
16 *2249:A *1890:A 2.32101e-05
17 *561:16 *1888:A 0.00044107
18 *561:16 *1890:B 0.000138727
19 *561:16 *672:10 9.38233e-05
20 *561:16 *688:41 3.31683e-05
21 *561:37 *1896:B 4.34745e-05
22 *561:37 *1896:D 0.000183835
23 *561:49 *1896:B 9.84851e-05
24 *561:49 *1896:D 3.22879e-05
25 *561:49 *562:31 0.00121954
26 *561:61 *1890:B 0.000240695
27 *561:61 *688:41 1.69668e-05
28 pcRegister[17] *561:49 0
29 *2032:CLK *1893:A2 3.47781e-05
30 *2032:CLK *561:8 2.93845e-05
31 *2032:CLK *561:61 0.000195248
32 *2033:CLK *2249:A 5.3304e-05
33 *508:12 *561:37 4.49946e-05
34 *509:10 *561:37 8.26569e-05
35 *509:21 *561:37 6.08751e-05
36 *548:12 *1893:A2 0.000156379
37 *560:19 *1891:A 0
38 *560:34 *1891:A 0
39 *560:34 *561:16 0.000272377
40 *560:34 *561:37 0
41 *560:44 *561:37 0.000194309
*RES
1 *2032:Q *561:8 41.48 
2 *561:8 *561:16 39.28 
3 *561:16 *1891:A 40.7757 
4 *561:16 *561:37 24.9221 
5 *561:37 *561:49 46.9857 
6 *561:49 *2269:A 23 
7 *561:37 *1896:C 23 
8 *561:8 *561:61 3.31429 
9 *561:61 *2249:A 42.4536 
10 *561:61 *1893:A2 41.2314 
*END

*D_NET *562 0.00682777
*CONN
*I *1895:A1 I *D sky130_fd_sc_hd__a21oi_2
*I *2225:A I *D sky130_fd_sc_hd__dlygate4sd3_1
*I *1893:A1 I *D sky130_fd_sc_hd__a31o_2
*I *2270:A I *D sky130_fd_sc_hd__clkdlybuf4s25_1
*I *1896:B I *D sky130_fd_sc_hd__and4_2
*I *2033:Q O *D sky130_fd_sc_hd__dfxtp_2
*CAP
1 *1895:A1 3.38155e-05
2 *2225:A 0.000170128
3 *1893:A1 0.000589399
4 *2270:A 0
5 *1896:B 0.000156831
6 *2033:Q 8.87111e-05
7 *562:69 0.000203944
8 *562:40 0.000789777
9 *562:31 0.000369886
10 *562:10 0.000667533
11 *562:8 0.000429906
12 *1893:A1 *1893:A3 5.50106e-05
13 *1893:A1 *1894:A1 5.67058e-05
14 *1893:A1 *563:12 2.80512e-05
15 *1893:A1 *563:24 0.000144522
16 *1896:B *564:8 0
17 *1896:B *564:12 0
18 *562:8 *2256:A 3.7122e-06
19 *562:10 *564:8 0
20 *562:31 *1896:D 0
21 *562:31 *1900:B1 0.000225399
22 *562:31 *2199:A 5.69371e-05
23 *562:40 *2256:A 5.97612e-05
24 *562:69 *563:24 0.000137651
25 *562:69 *594:10 1.0092e-05
26 *562:69 *682:44 9.68829e-05
27 *1894:A2 *1893:A1 5.50049e-05
28 *2034:CLK *1895:A1 0.000142678
29 *268:10 *562:40 6.48142e-05
30 *268:10 *562:69 3.16665e-05
31 *509:21 *562:10 0
32 *509:21 *562:40 0
33 *509:40 *1895:A1 0.000140259
34 *510:6 *1893:A1 0.000148201
35 *511:10 *562:69 0.000166522
36 *512:6 *562:31 8.85324e-05
37 *512:8 *562:31 0.000100257
38 *512:14 *562:31 4.95081e-05
39 *512:38 *562:40 0
40 *512:51 *562:69 1.377e-05
41 *514:10 *562:31 9.03954e-05
42 *561:37 *1896:B 4.34745e-05
43 *561:49 *1896:B 9.84851e-05
44 *561:49 *562:31 0.00121954
*RES
1 *2033:Q *562:8 39.0979 
2 *562:8 *562:10 2.25786 
3 *562:10 *1896:B 40.4236 
4 *562:10 *562:31 29.6243 
5 *562:31 *2270:A 23 
6 *562:8 *562:40 18.6664 
7 *562:40 *1893:A1 33.8129 
8 *562:40 *2225:A 23 
9 *2225:A *562:69 42.5364 
10 *562:69 *1895:A1 39.5743 
*END

*D_NET *563 0.00596224
*CONN
*I *2195:A I *D sky130_fd_sc_hd__dlygate4sd3_1
*I *1896:A I *D sky130_fd_sc_hd__and4_2
*I *2271:A I *D sky130_fd_sc_hd__clkdlybuf4s25_1
*I *2034:Q O *D sky130_fd_sc_hd__dfxtp_2
*CAP
1 *2195:A 0.000295143
2 *1896:A 0
3 *2271:A 0.000142149
4 *2034:Q 0
5 *563:41 0.000318534
6 *563:24 0.00121669
7 *563:12 0.00153314
8 *563:6 0.000435202
9 *2195:A *682:34 0
10 *2271:A *1903:C 5.3304e-05
11 *2271:A *569:31 5.90846e-05
12 *2271:A *569:41 1.59071e-05
13 *563:12 *682:34 0
14 *563:24 *1894:A1 3.22879e-05
15 *563:24 *1903:C 1.41129e-05
16 *563:24 *569:8 9.5877e-05
17 *563:24 *683:25 5.04167e-05
18 *563:24 *683:33 2.13733e-05
19 *563:41 *1896:D 0.000271476
20 *563:41 *682:21 0
21 *563:41 *682:34 0
22 *1893:A1 *563:12 2.80512e-05
23 *1893:A1 *563:24 0.000144522
24 *1894:A2 *563:24 2.93747e-05
25 *2036:CLK *563:24 1.83327e-05
26 *232:8 *2195:A 2.14404e-05
27 *267:8 *563:41 0.000116314
28 *508:12 *563:41 3.5664e-05
29 *509:21 *563:41 0.000380342
30 *509:40 *563:12 3.04021e-05
31 *509:40 *563:41 6.25829e-05
32 *510:6 *563:12 7.53384e-06
33 *515:16 *563:24 0
34 *515:33 *563:24 0.000231039
35 *535:317 *2195:A 2.95423e-05
36 *535:326 *2195:A 2.75241e-05
37 *546:14 *563:24 0.000107232
38 *562:69 *563:24 0.000137651
*RES
1 *2034:Q *563:6 38 
2 *563:6 *563:12 17.6514 
3 *563:12 *563:24 49.0157 
4 *563:24 *2271:A 25.9 
5 *563:12 *563:41 38.7829 
6 *563:41 *1896:A 23 
7 *563:6 *2195:A 43.3857 
*END

*D_NET *564 0.00628303
*CONN
*I *2272:A I *D sky130_fd_sc_hd__clkdlybuf4s25_1
*I *1903:C I *D sky130_fd_sc_hd__and4_2
*I *1901:B I *D sky130_fd_sc_hd__and3_2
*I *1900:A1 I *D sky130_fd_sc_hd__a21oi_2
*I *2233:A I *D sky130_fd_sc_hd__dlygate4sd3_1
*I *1898:A1 I *D sky130_fd_sc_hd__a21oi_2
*I *2035:Q O *D sky130_fd_sc_hd__dfxtp_2
*CAP
1 *2272:A 0.000371986
2 *1903:C 9.72839e-05
3 *1901:B 0
4 *1900:A1 0
5 *2233:A 6.41175e-05
6 *1898:A1 0.000121806
7 *2035:Q 0.000753151
8 *564:57 0.000505596
9 *564:48 0.000223777
10 *564:46 0.000837592
11 *564:12 0.000375868
12 *564:8 0.000292954
13 *1898:A1 *637:10 7.24484e-05
14 *1903:C *1903:B 0.000219971
15 *1903:C *569:31 5.3304e-05
16 *2272:A *1903:A 4.80733e-05
17 *2272:A *569:27 3.43144e-05
18 *2272:A *580:21 0.000123748
19 *564:12 *1898:B1 0
20 *564:46 *683:10 0.000269781
21 *564:48 *2199:A 0.000113842
22 *564:48 *569:27 7.05435e-05
23 *564:48 *683:33 0.000112303
24 *564:57 *569:27 5.95452e-05
25 *1896:B *564:8 0
26 *1896:B *564:12 0
27 *1898:A2 *1898:A1 9.84794e-05
28 *1901:C *1903:C 1.59071e-05
29 *1902:B *564:46 0.000116679
30 *2035:CLK *564:46 5.79559e-05
31 *2035:D *564:46 5.73018e-05
32 *2271:A *1903:C 5.3304e-05
33 *102:8 *2272:A 0
34 *102:8 *564:57 0
35 *512:38 *564:8 7.03869e-05
36 *513:10 *1898:A1 2.32101e-05
37 *515:16 *564:48 9.22284e-05
38 *515:33 *1903:C 0.000233367
39 *560:44 *1898:A1 0.00044107
40 *560:44 *2233:A 0.000187017
41 *562:10 *564:8 0
42 *563:24 *1903:C 1.41129e-05
*RES
1 *2035:Q *564:8 40.2579 
2 *564:8 *564:12 17.61 
3 *564:12 *1898:A1 27.9093 
4 *564:12 *2233:A 25.0507 
5 *564:8 *1900:A1 38 
6 *2035:Q *564:46 48.3157 
7 *564:46 *564:48 4.37071 
8 *564:48 *1901:B 38 
9 *564:48 *564:57 0.849286 
10 *564:57 *1903:C 41.9771 
11 *564:57 *2272:A 45.9957 
*END

*D_NET *565 0.00205544
*CONN
*I *1842:A2 I *D sky130_fd_sc_hd__a21oi_2
*I *1736:B1 I *D sky130_fd_sc_hd__o31a_2
*I *2169:X O *D sky130_fd_sc_hd__dlygate4sd3_1
*CAP
1 *1842:A2 0
2 *1736:B1 0.000271162
3 *2169:X 0.000263738
4 *565:10 0.000534901
5 *1736:B1 *1633:C 5.62507e-05
6 *1736:B1 *694:144 5.78754e-05
7 *1736:B1 *707:14 5.50049e-05
8 *565:10 *2169:A 9.00923e-05
9 *565:10 *694:144 5.08733e-05
10 *565:10 *725:6 2.93747e-05
11 *1736:A2 *1736:B1 5.3304e-05
12 *321:14 *1736:B1 0.000473945
13 *321:14 *565:10 3.33617e-05
14 *346:8 *1736:B1 5.41288e-05
15 *538:65 *565:10 3.14274e-05
*RES
1 *2169:X *565:10 42.785 
2 *565:10 *1736:B1 45.0429 
3 *565:10 *1842:A2 38 
*END

*D_NET *566 0.000250729
*CONN
*I *2097:D I *D sky130_fd_sc_hd__dfrtp_2
*I *2170:X O *D sky130_fd_sc_hd__dlygate4sd3_1
*CAP
1 *2097:D 0.00010922
2 *2170:X 0.00010922
3 *2097:CLK *2097:D 3.22879e-05
*RES
1 *2170:X *2097:D 48.0507 
*END

*D_NET *567 0.00104589
*CONN
*I *1905:A1 I *D sky130_fd_sc_hd__o21a_2
*I *2171:X O *D sky130_fd_sc_hd__dlygate4sd3_1
*CAP
1 *1905:A1 0
2 *2171:X 0.000472554
3 *567:10 0.000472554
4 *515:33 *567:10 1.13812e-05
5 *516:10 *567:10 1.0092e-05
6 *535:337 *567:10 5.28455e-05
7 *546:8 *567:10 2.64616e-05
*RES
1 *2171:X *567:10 44.6907 
2 *567:10 *1905:A1 38 
*END

*D_NET *568 0.00372162
*CONN
*I *1855:A1 I *D sky130_fd_sc_hd__o21a_2
*I *2172:X O *D sky130_fd_sc_hd__dlygate4sd3_1
*CAP
1 *1855:A1 0
2 *2172:X 0.000968971
3 *568:16 0.000244268
4 *568:10 0.00121324
5 *568:10 *678:12 9.27692e-05
6 *568:16 *675:33 0.000257733
7 *1851:C *568:10 0.000145171
8 *2065:CLK *568:10 0.000149896
9 *2065:D *568:10 9.82196e-05
10 *254:14 *568:16 0.000551348
*RES
1 *2172:X *568:10 38.5564 
2 *568:10 *568:16 37.54 
3 *568:16 *1855:A1 23 
*END

*D_NET *569 0.00503215
*CONN
*I *1903:B I *D sky130_fd_sc_hd__and4_2
*I *1901:A I *D sky130_fd_sc_hd__and3_2
*I *2273:A I *D sky130_fd_sc_hd__clkdlybuf4s25_1
*I *2199:A I *D sky130_fd_sc_hd__dlygate4sd3_1
*I *2036:Q O *D sky130_fd_sc_hd__dfxtp_2
*CAP
1 *1903:B 4.20625e-05
2 *1901:A 0
3 *2273:A 0
4 *2199:A 0.000379609
5 *2036:Q 0.000287549
6 *569:41 0.00071437
7 *569:31 0.000800442
8 *569:27 0.000258164
9 *569:8 0.000797187
10 *1903:B *1903:A 0.000102551
11 *2199:A *683:33 0.000138718
12 *569:41 *1911:A 0
13 *569:41 *2274:A 0
14 *1901:C *1903:B 7.13215e-05
15 *1901:C *569:31 2.64616e-05
16 *1903:C *1903:B 0.000219971
17 *1903:C *569:31 5.3304e-05
18 *1910:B *569:41 0.00025214
19 *2025:CLK *2199:A 0
20 *2035:CLK *2199:A 0
21 *2036:CLK *569:8 6.38308e-05
22 *2271:A *569:31 5.90846e-05
23 *2271:A *569:41 1.59071e-05
24 *2272:A *569:27 3.43144e-05
25 *102:8 *569:41 0
26 *104:10 *569:41 0.000113086
27 *105:8 *569:41 0
28 *273:10 *569:41 0
29 *514:10 *2199:A 4.83778e-05
30 *515:16 *2199:A 4.82745e-05
31 *515:16 *569:27 0.000108681
32 *546:14 *2199:A 0
33 *546:14 *569:27 0
34 *546:16 *2199:A 0
35 *562:31 *2199:A 5.69371e-05
36 *563:24 *569:8 9.5877e-05
37 *564:48 *2199:A 0.000113842
38 *564:48 *569:27 7.05435e-05
39 *564:57 *569:27 5.95452e-05
*RES
1 *2036:Q *569:8 41.9564 
2 *569:8 *2199:A 46.3479 
3 *569:8 *569:27 17.2579 
4 *569:27 *569:31 2.07143 
5 *569:31 *569:41 44.6864 
6 *569:41 *2273:A 23 
7 *569:31 *1901:A 23 
8 *569:27 *1903:B 25.5271 
*END

*D_NET *570 0.003228
*CONN
*I *1913:A1 I *D sky130_fd_sc_hd__o21a_2
*I *2173:X O *D sky130_fd_sc_hd__dlygate4sd3_1
*CAP
1 *1913:A1 0
2 *2173:X 0.000844279
3 *570:16 0.000844279
4 *570:16 *2279:A 9.01073e-05
5 *570:16 *625:16 8.87132e-05
6 *570:16 *625:77 0.000225863
7 *570:16 *625:90 2.47127e-05
8 *1908:A2 *570:16 7.15126e-05
9 *1913:A2 *570:16 0.000121334
10 *2041:D *570:16 0.000310336
11 *516:42 *570:16 0.000467221
12 *519:8 *570:16 0.000139646
*RES
1 *2173:X *570:16 43.0307 
2 *570:16 *1913:A1 23 
*END

*D_NET *571 0.00165648
*CONN
*I *1843:A1 I *D sky130_fd_sc_hd__a21boi_2
*I *1735:B1 I *D sky130_fd_sc_hd__o21a_2
*I *2174:X O *D sky130_fd_sc_hd__dlygate4sd3_1
*CAP
1 *1843:A1 0
2 *1735:B1 4.69757e-05
3 *2174:X 4.68693e-05
4 *571:21 0.000155709
5 *571:6 0.000249554
6 *1735:B1 *692:78 2.02872e-05
7 *571:6 *692:78 0.000139024
8 *571:21 *692:78 5.55743e-06
9 *1734:A *571:21 1.0092e-05
10 *1735:A1 *571:6 5.58003e-05
11 *2050:CLK *1735:B1 4.98398e-05
12 *2050:CLK *571:6 7.33916e-05
13 *552:62 *571:21 0.000376108
14 *556:10 *1735:B1 5.3304e-05
15 *556:14 *571:21 0.00037397
*RES
1 *2174:X *571:6 25.0507 
2 *571:6 *1735:B1 24.0979 
3 *571:6 *571:21 35.5721 
4 *571:21 *1843:A1 23 
*END

*D_NET *572 0.000646225
*CONN
*I *2095:D I *D sky130_fd_sc_hd__dfrtp_2
*I *2175:X O *D sky130_fd_sc_hd__dlygate4sd3_1
*CAP
1 *2095:D 0
2 *2175:X 0.000220861
3 *572:10 0.000220861
4 *2152:A *572:10 0.000172381
5 *349:19 *572:10 3.21223e-05
*RES
1 *2175:X *572:10 41.6043 
2 *572:10 *2095:D 38 
*END

*D_NET *573 0.000327619
*CONN
*I *1830:A I *D sky130_fd_sc_hd__xnor2_2
*I *2176:X O *D sky130_fd_sc_hd__dlygate4sd3_1
*CAP
1 *1830:A 6.81824e-05
2 *2176:X 6.81824e-05
3 *1830:A *1803:B1 0.000191255
*RES
1 *2176:X *1830:A 48.0507 
*END

*D_NET *574 0.00267168
*CONN
*I *1863:A1 I *D sky130_fd_sc_hd__o21a_2
*I *2177:X O *D sky130_fd_sc_hd__dlygate4sd3_1
*CAP
1 *1863:A1 0.000360755
2 *2177:X 0.000117601
3 *574:8 0.000478357
4 *574:8 *677:50 0.000268011
5 *574:8 *679:48 0.000315694
6 *574:8 *679:64 9.84851e-05
7 *1866:C *1863:A1 0.000159657
8 *2140:A *1863:A1 0.000128713
9 *255:8 *1863:A1 0.000116314
10 *257:10 *1863:A1 0.000313267
11 *482:34 *1863:A1 0
12 *491:23 *1863:A1 0.000188679
13 *495:16 *1863:A1 5.50106e-05
14 *535:86 *1863:A1 1.61305e-05
15 *536:86 *574:8 5.50049e-05
*RES
1 *2177:X *574:8 43.3857 
2 *574:8 *1863:A1 47.57 
*END

*D_NET *575 0.000593779
*CONN
*I *1641:B1 I *D sky130_fd_sc_hd__a21oi_2
*I *2178:X O *D sky130_fd_sc_hd__dlygate4sd3_1
*CAP
1 *1641:B1 0.000139322
2 *2178:X 8.35593e-05
3 *575:8 0.000222881
4 *575:8 *691:49 0.000138151
5 mem_addr[24] *575:8 9.86551e-06
6 *352:14 *575:8 0
*RES
1 *2178:X *575:8 39.9057 
2 *575:8 *1641:B1 40.5271 
*END

*D_NET *576 0.000665771
*CONN
*I *2083:D I *D sky130_fd_sc_hd__dfrtp_2
*I *2179:X O *D sky130_fd_sc_hd__dlygate4sd3_1
*CAP
1 *2083:D 0
2 *2179:X 0.000165547
3 *576:8 0.000165547
4 *576:8 *701:74 5.76501e-05
5 *353:16 *576:8 0.000163023
6 *354:10 *576:8 0.000114004
*RES
1 *2179:X *576:8 42.3707 
2 *576:8 *2083:D 38 
*END

*D_NET *577 0.00290236
*CONN
*I *1868:A1 I *D sky130_fd_sc_hd__o21ai_2
*I *1869:A1 I *D sky130_fd_sc_hd__a21oi_2
*I *2180:X O *D sky130_fd_sc_hd__dlygate4sd3_1
*CAP
1 *1868:A1 0
2 *1869:A1 0.000355286
3 *2180:X 0.000334531
4 *577:10 0.000689817
5 *1869:A1 *2210:A 0.000102971
6 *1869:A1 *610:10 0.000233211
7 *1869:A1 *702:12 1.14452e-05
8 *1869:A1 *702:24 0.000473992
9 *577:10 *603:12 5.72975e-05
10 *577:10 *679:112 0.000158292
11 *577:10 *686:27 9.7231e-05
12 *577:10 *702:12 0.000155077
13 *1869:B1 *1869:A1 0.000233211
14 *493:8 *1869:A1 0
15 *496:54 *1869:A1 0
16 *496:54 *577:10 0
*RES
1 *2180:X *577:10 44.6907 
2 *577:10 *1869:A1 48.4193 
3 *577:10 *1868:A1 38 
*END

*D_NET *578 0.00159227
*CONN
*I *1666:A I *D sky130_fd_sc_hd__xnor2_2
*I *2181:X O *D sky130_fd_sc_hd__dlygate4sd3_1
*CAP
1 *1666:A 0
2 *2181:X 0.00056866
3 *578:10 0.00056866
4 *578:10 *1970:A 0.00014196
5 *578:10 *700:21 0
6 *578:10 *761:14 0.000100733
7 *2079:CLK *578:10 5.67058e-05
8 *376:22 *578:10 1.14452e-05
9 *377:20 *578:10 0.00014411
*RES
1 *2181:X *578:10 46.7207 
2 *578:10 *1666:A 38 
*END

*D_NET *579 0.00223099
*CONN
*I *1774:A1 I *D sky130_fd_sc_hd__a21boi_2
*I *1720:B1_N I *D sky130_fd_sc_hd__a21boi_2
*I *2182:X O *D sky130_fd_sc_hd__dlygate4sd3_1
*CAP
1 *1774:A1 0
2 *1720:B1_N 0
3 *2182:X 5.42001e-05
4 *579:18 0.000324226
5 *579:12 0.000497334
6 *579:8 0.000227308
7 *579:8 *681:8 1.01436e-05
8 *579:8 *681:19 0.000131744
9 *579:18 *2157:A 6.35686e-05
10 *579:18 *701:43 0.000574526
11 *1719:B *579:18 7.91596e-05
12 *1774:A2 *579:12 5.3304e-05
13 *2183:A *579:12 8.85483e-05
14 *133:16 *579:18 0
15 *215:8 *579:8 7.03869e-05
16 *295:10 *579:18 0
17 *413:31 *579:18 0
18 *449:31 *579:18 3.81699e-05
19 *555:86 *579:18 1.83667e-05
*RES
1 *2182:X *579:8 39.9057 
2 *579:8 *579:12 18.0036 
3 *579:12 *579:18 38.5964 
4 *579:18 *1720:B1_N 23 
5 *579:12 *1774:A1 23 
*END

*D_NET *580 0.00233823
*CONN
*I *2274:A I *D sky130_fd_sc_hd__clkdlybuf4s25_1
*I *2171:A I *D sky130_fd_sc_hd__dlygate4sd3_1
*I *1903:A I *D sky130_fd_sc_hd__and4_2
*I *2037:Q O *D sky130_fd_sc_hd__dfxtp_2
*CAP
1 *2274:A 0.000179867
2 *2171:A 4.17755e-05
3 *1903:A 0.000110356
4 *2037:Q 0.000367748
5 *580:21 0.000392176
6 *580:8 0.000648637
7 *2274:A *1910:A 0.000144501
8 *2274:A *1911:A 7.87243e-05
9 *1901:C *1903:A 0.000100069
10 *1903:B *1903:A 0.000102551
11 *2272:A *1903:A 4.80733e-05
12 *2272:A *580:21 0.000123748
13 *546:79 *2274:A 0
14 *569:41 *2274:A 0
*RES
1 *2037:Q *580:8 42.4329 
2 *580:8 *1903:A 40.6514 
3 *580:8 *580:21 4.01857 
4 *580:21 *2171:A 38.6214 
5 *580:21 *2274:A 42.1843 
*END

*D_NET *581 0.000421497
*CONN
*I *2088:D I *D sky130_fd_sc_hd__dfrtp_2
*I *2183:X O *D sky130_fd_sc_hd__dlygate4sd3_1
*CAP
1 *2088:D 0
2 *2183:X 0.000131859
3 *581:10 0.000131859
4 *581:10 *1950:A 1.59094e-05
5 *581:10 *681:8 0
6 *581:10 *728:27 0.000141869
*RES
1 *2183:X *581:10 40.5271 
2 *581:10 *2088:D 38 
*END

*D_NET *582 0.00156356
*CONN
*I *1607:A I *D sky130_fd_sc_hd__inv_2
*I *2184:X O *D sky130_fd_sc_hd__dlygate4sd3_1
*CAP
1 *1607:A 0
2 *2184:X 0
3 *582:12 0.000653568
4 *582:6 0.000653568
5 pcRegister[24] *582:12 0
6 pcRegister[28] *582:12 0.000169866
7 *113:12 *582:12 2.05503e-05
8 *277:18 *582:12 0
9 *526:20 *582:12 6.60124e-05
*RES
1 *2184:X *582:6 38 
2 *582:6 *582:12 28.7957 
3 *582:12 *1607:A 23 
*END

*D_NET *583 0.000875687
*CONN
*I *1632:A1 I *D sky130_fd_sc_hd__a22o_2
*I *2185:X O *D sky130_fd_sc_hd__dlygate4sd3_1
*CAP
1 *1632:A1 0
2 *2185:X 0.000189905
3 *583:6 0.000189905
4 *583:6 *1616:A 5.50106e-05
5 *1627:C *583:6 0.0002263
6 *1632:A2 *583:6 1.55941e-05
7 *551:37 *583:6 0.000198973
*RES
1 *2185:X *583:6 27.9093 
2 *583:6 *1632:A1 23 
*END

*D_NET *584 0.00114894
*CONN
*I *1669:B1 I *D sky130_fd_sc_hd__a21oi_2
*I *2186:X O *D sky130_fd_sc_hd__dlygate4sd3_1
*CAP
1 *1669:B1 4.16892e-05
2 *2186:X 0.000219027
3 *584:10 0.000260717
4 *1669:B1 *1678:D 0.000100486
5 *584:10 *1678:C 0
6 *584:10 *759:21 0.000347084
7 *378:8 *584:10 0.000167713
8 *383:12 *584:10 1.22217e-05
*RES
1 *2186:X *584:10 43.3443 
2 *584:10 *1669:B1 39.0979 
*END

*D_NET *585 0.00117396
*CONN
*I *1670:B I *D sky130_fd_sc_hd__nor2_2
*I *2187:X O *D sky130_fd_sc_hd__dlygate4sd3_1
*CAP
1 *1670:B 0
2 *2187:X 0.000346377
3 *585:10 0.000346377
4 *585:10 *1678:C 7.03869e-05
5 *585:10 *700:35 2.93845e-05
6 *585:10 *701:82 0
7 *585:10 *759:10 0
8 *585:10 *760:27 8.11136e-05
9 *2079:CLK *585:10 9.98891e-05
10 *206:8 *585:10 0.000137163
11 *377:20 *585:10 0
12 *541:12 *585:10 6.32688e-05
*RES
1 *2187:X *585:10 46.5136 
2 *585:10 *1670:B 38 
*END

*D_NET *586 0.000484751
*CONN
*I *1826:B1 I *D sky130_fd_sc_hd__a21oi_2
*I *2188:X O *D sky130_fd_sc_hd__dlygate4sd3_1
*CAP
1 *1826:B1 0
2 *2188:X 0.000183955
3 *586:10 0.000183955
4 *586:10 *684:10 0
5 *586:10 *684:40 0
6 *586:10 *688:27 9.84851e-05
7 *337:42 *586:10 1.83564e-05
*RES
1 *2188:X *586:10 41.0036 
2 *586:10 *1826:B1 38 
*END

*D_NET *587 0.00127536
*CONN
*I *1822:B1 I *D sky130_fd_sc_hd__a21oi_2
*I *2189:X O *D sky130_fd_sc_hd__dlygate4sd3_1
*CAP
1 *1822:B1 8.24796e-05
2 *2189:X 0.000254546
3 *587:10 0.000337026
4 *1822:B1 *1822:A1 9.84794e-05
5 *1822:B1 *2211:A 0.000181131
6 *587:10 *1654:B 6.57749e-05
7 *587:10 *2189:A 4.70479e-05
8 *587:10 *696:38 3.81803e-05
9 *150:10 *587:10 2.64616e-05
10 *535:290 *1822:B1 0.000144231
*RES
1 *2189:X *587:10 41.9564 
2 *587:10 *1822:B1 41.0036 
*END

*D_NET *588 0.0012892
*CONN
*I *1823:B I *D sky130_fd_sc_hd__nor2_2
*I *2190:X O *D sky130_fd_sc_hd__dlygate4sd3_1
*CAP
1 *1823:B 0
2 *2190:X 0.00023514
3 *588:10 0.00023514
4 *588:10 *1821:A 0.000380646
5 *588:10 *1821:B 8.62876e-05
6 *588:10 *741:19 3.673e-05
7 *588:10 *742:23 0.000240411
8 *535:233 *588:10 0
9 *540:14 *588:10 7.48414e-05
*RES
1 *2190:X *588:10 45.0014 
2 *588:10 *1823:B 38 
*END

*D_NET *589 0.000545052
*CONN
*I *1849:B1 I *D sky130_fd_sc_hd__a31oi_2
*I *2191:X O *D sky130_fd_sc_hd__dlygate4sd3_1
*CAP
1 *1849:B1 5.7094e-05
2 *2191:X 5.7094e-05
3 *1849:B1 *2191:A 0.000277896
4 *478:22 *1849:B1 0.000152968
*RES
1 *2191:X *1849:B1 49.0036 
*END

*D_NET *590 0.000536607
*CONN
*I *1802:A I *D sky130_fd_sc_hd__xor2_2
*I *1618:A I *D sky130_fd_sc_hd__inv_2
*I *2192:X O *D sky130_fd_sc_hd__dlygate4sd3_1
*CAP
1 *1802:A 0
2 *1618:A 3.35764e-05
3 *2192:X 0.000261375
4 *590:22 0.000227799
5 *590:22 *648:8 1.01436e-05
6 *149:10 *1618:A 3.7122e-06
7 *457:10 *590:22 0
*RES
1 *2192:X *1618:A 46.6214 
2 *2192:X *590:22 41.48 
3 *590:22 *1802:A 38 
*END

*D_NET *591 0.00570866
*CONN
*I *2234:A I *D sky130_fd_sc_hd__dlygate4sd3_1
*I *1908:A1 I *D sky130_fd_sc_hd__a21oi_2
*I *2275:A I *D sky130_fd_sc_hd__clkdlybuf4s25_1
*I *1909:B I *D sky130_fd_sc_hd__and3_2
*I *1906:A1 I *D sky130_fd_sc_hd__a21oi_2
*I *1911:C I *D sky130_fd_sc_hd__and4_2
*I *2038:Q O *D sky130_fd_sc_hd__dfxtp_2
*CAP
1 *2234:A 2.87854e-05
2 *1908:A1 8.92266e-05
3 *2275:A 0.000335288
4 *1909:B 4.99221e-05
5 *1906:A1 0.000325937
6 *1911:C 3.75611e-05
7 *2038:Q 0.000105948
8 *591:53 0.000528961
9 *591:42 0.000205193
10 *591:25 0.00052941
11 *591:14 0.000440327
12 *591:10 0.000278904
13 *591:8 0.000105948
14 *1906:A1 *602:25 0.000221997
15 *1906:A1 *682:68 2.64616e-05
16 *1908:A1 *670:10 5.84798e-05
17 *1911:C *683:57 6.16439e-05
18 *2275:A *670:10 0.0002778
19 *591:8 *670:29 1.83564e-05
20 *591:14 *1912:A 0.000267173
21 *591:42 *602:35 0
22 *591:53 *602:35 0
23 *1906:A2 *1906:A1 1.21972e-05
24 *1908:A2 *1908:A1 5.15096e-05
25 *2040:CLK *591:25 7.50918e-05
26 *2147:A *1906:A1 0.000139352
27 *2154:A *2275:A 5.50049e-05
28 *272:12 *591:8 8.05415e-05
29 *274:20 *591:42 9.69173e-06
30 *516:18 *1911:C 1.14452e-05
31 *516:18 *591:8 0
32 *516:27 *1911:C 7.48331e-05
33 *516:27 *591:8 0
34 *516:27 *591:25 0.000357939
35 *516:36 *1908:A1 0.000111852
36 *516:36 *591:25 5.01986e-05
37 *516:36 *591:42 8.28736e-05
38 *516:36 *591:53 0.000192077
39 *520:18 *1906:A1 7.15126e-05
40 *520:18 *1909:B 5.3304e-05
41 *520:31 *1906:A1 0.000130449
42 *522:10 *2234:A 2.32101e-05
43 *522:10 *591:14 6.17437e-06
44 *546:79 *1911:C 1.26098e-05
45 *546:79 *591:25 0.000113466
*RES
1 *2038:Q *591:8 40.2579 
2 *591:8 *591:10 15 
3 *591:10 *591:14 19.9093 
4 *591:14 *1911:C 39.2014 
5 *591:14 *591:25 5.42714 
6 *591:25 *1906:A1 45.9543 
7 *591:25 *591:42 1.20143 
8 *591:42 *1909:B 38.6214 
9 *591:42 *591:53 2.61 
10 *591:53 *2275:A 44.8357 
11 *591:53 *1908:A1 40.2579 
12 *591:10 *2234:A 23.6214 
*END

*D_NET *592 0.000750554
*CONN
*I *1889:A1 I *D sky130_fd_sc_hd__o21a_2
*I *2193:X O *D sky130_fd_sc_hd__dlygate4sd3_1
*CAP
1 *1889:A1 0.000201063
2 *2193:X 5.7591e-05
3 *592:8 0.000258654
4 *1889:A1 *1877:A 3.91386e-05
5 *1889:A2 *1889:A1 2.93747e-05
6 *1889:B1 *1889:A1 0.000113903
7 *1891:C *592:8 2.5415e-05
8 *560:19 *592:8 2.5415e-05
*RES
1 *2193:X *592:8 39.2014 
2 *592:8 *1889:A1 41.3764 
*END

*D_NET *593 0.000108875
*CONN
*I *1819:A1 I *D sky130_fd_sc_hd__o21a_2
*I *2194:X O *D sky130_fd_sc_hd__dlygate4sd3_1
*CAP
1 *1819:A1 2.29973e-05
2 *2194:X 2.29973e-05
3 *1817:B *1819:A1 5.67058e-05
4 *464:10 *1819:A1 6.17437e-06
*RES
1 *2194:X *1819:A1 46.6214 
*END

*D_NET *594 0.000873487
*CONN
*I *1895:B1 I *D sky130_fd_sc_hd__a21oi_2
*I *2195:X O *D sky130_fd_sc_hd__dlygate4sd3_1
*CAP
1 *1895:B1 0
2 *2195:X 0.000329506
3 *594:10 0.000329506
4 *594:10 *682:44 6.33771e-05
5 *594:10 *682:68 7.43673e-05
6 *517:10 *594:10 2.35118e-06
7 *535:337 *594:10 6.42884e-05
8 *562:69 *594:10 1.0092e-05
*RES
1 *2195:X *594:10 42.9093 
2 *594:10 *1895:B1 38 
*END

*D_NET *595 0.00107175
*CONN
*I *1718:A1 I *D sky130_fd_sc_hd__a21o_2
*I *2196:X O *D sky130_fd_sc_hd__dlygate4sd3_1
*CAP
1 *1718:A1 0
2 *2196:X 0.000226615
3 *595:10 0.000226615
4 *595:10 *1717:B 6.7063e-05
5 *595:10 *694:16 0
6 *1793:A *595:10 9.84851e-05
7 *1794:B1 *595:10 0.000194318
8 *54:12 *595:10 5.50049e-05
9 *407:25 *595:10 1.01436e-05
10 *409:8 *595:10 0.000168754
11 *556:88 *595:10 2.4754e-05
*RES
1 *2196:X *595:10 44.09 
2 *595:10 *1718:A1 38 
*END

*D_NET *596 0.000650341
*CONN
*I *1752:B1 I *D sky130_fd_sc_hd__o21a_2
*I *2197:X O *D sky130_fd_sc_hd__dlygate4sd3_1
*CAP
1 *1752:B1 0
2 *2197:X 0.000137138
3 *596:6 0.000137138
4 *596:6 *701:24 0.000230903
5 *433:20 *596:6 0.000145163
*RES
1 *2197:X *596:6 27.4329 
2 *596:6 *1752:B1 23 
*END

*D_NET *597 0.000756357
*CONN
*I *1768:B1 I *D sky130_fd_sc_hd__o21a_2
*I *2198:X O *D sky130_fd_sc_hd__dlygate4sd3_1
*CAP
1 *1768:B1 9.7912e-05
2 *2198:X 9.7912e-05
3 *1723:A1 *1768:B1 0.000228903
4 *1768:A1 *1768:B1 0.000187129
5 *554:16 *1768:B1 0.000144501
*RES
1 *2198:X *1768:B1 49.9564 
*END

*D_NET *598 0.000540869
*CONN
*I *1900:B1 I *D sky130_fd_sc_hd__a21oi_2
*I *2199:X O *D sky130_fd_sc_hd__dlygate4sd3_1
*CAP
1 *1900:B1 5.47188e-05
2 *2199:X 5.47188e-05
3 *512:14 *1900:B1 0.000182832
4 *514:10 *1900:B1 2.32004e-05
5 *562:31 *1900:B1 0.000225399
*RES
1 *2199:X *1900:B1 48.5271 
*END

*D_NET *599 0.00031673
*CONN
*I *1876:B1 I *D sky130_fd_sc_hd__a21oi_2
*I *2200:X O *D sky130_fd_sc_hd__dlygate4sd3_1
*CAP
1 *1876:B1 3.58622e-05
2 *2200:X 3.58622e-05
3 *1876:B1 *1888:A 0.00014557
4 *2025:D *1876:B1 9.94357e-05
*RES
1 *2200:X *1876:B1 47.5743 
*END

*D_NET *600 0.000287602
*CONN
*I *1672:A I *D sky130_fd_sc_hd__xor2_2
*I *2201:X O *D sky130_fd_sc_hd__dlygate4sd3_1
*CAP
1 *1672:A 0
2 *2201:X 7.17459e-05
3 *600:8 7.17459e-05
4 *1672:B *600:8 0.00014411
*RES
1 *2201:X *600:8 39.9057 
2 *600:8 *1672:A 38 
*END

*D_NET *601 0.000171403
*CONN
*I *1829:A I *D sky130_fd_sc_hd__xor2_2
*I *2202:X O *D sky130_fd_sc_hd__dlygate4sd3_1
*CAP
1 *1829:A 3.4507e-05
2 *2202:X 3.4507e-05
3 *1829:B *1829:A 0.000102389
*RES
1 *2202:X *1829:A 47.0979 
*END

*D_NET *602 0.00535128
*CONN
*I *2206:A I *D sky130_fd_sc_hd__dlygate4sd3_1
*I *1909:A I *D sky130_fd_sc_hd__and3_2
*I *2276:A I *D sky130_fd_sc_hd__clkdlybuf4s25_1
*I *1911:B I *D sky130_fd_sc_hd__and4_2
*I *2039:Q O *D sky130_fd_sc_hd__dfxtp_2
*CAP
1 *2206:A 0.000268819
2 *1909:A 0
3 *2276:A 0
4 *1911:B 0.000327042
5 *2039:Q 0
6 *602:35 0.00080131
7 *602:25 0.000964054
8 *602:21 0.000490766
9 *602:6 0.000386244
10 *1911:B *1910:A 1.56762e-05
11 *1911:B *1912:A 0.000253028
12 *1911:B *670:29 0.000103814
13 *2206:A *670:29 7.02559e-05
14 *602:21 *670:29 3.56537e-05
15 *602:35 *2278:A 0.000428682
16 *602:35 *614:25 0.000304222
17 *602:35 *647:8 0
18 *602:35 *670:10 0
19 *1906:A1 *602:25 0.000221997
20 *2040:CLK *602:35 0
21 *2042:D *2206:A 7.53384e-06
22 *274:20 *602:35 9.27295e-05
23 *323:16 *602:35 0.000229793
24 *516:27 *1911:B 0
25 *520:18 *602:25 1.57571e-05
26 *520:18 *602:35 5.91105e-05
27 *521:8 *1911:B 0.000117121
28 *521:8 *2206:A 0.000108131
29 *521:8 *602:21 4.95442e-05
30 *591:42 *602:35 0
31 *591:53 *602:35 0
*RES
1 *2039:Q *602:6 38 
2 *602:6 *1911:B 45.8714 
3 *602:6 *602:21 1.55357 
4 *602:21 *602:25 18.0036 
5 *602:25 *602:35 47.7729 
6 *602:35 *2276:A 23 
7 *602:25 *1909:A 23 
8 *602:21 *2206:A 43.365 
*END

*D_NET *603 0.000957595
*CONN
*I *1875:A1 I *D sky130_fd_sc_hd__o211a_2
*I *2203:X O *D sky130_fd_sc_hd__dlygate4sd3_1
*CAP
1 *1875:A1 2.41967e-06
2 *2203:X 0.000361777
3 *603:12 0.000364196
4 *1875:A1 *703:29 7.80291e-06
5 *603:12 *2180:A 3.7122e-06
6 *603:12 *686:27 6.40704e-05
7 *261:12 *1875:A1 7.80291e-06
8 *261:12 *603:12 8.29264e-05
9 *495:43 *603:12 5.58975e-06
10 *543:37 *603:12 0
11 *577:10 *603:12 5.72975e-05
*RES
1 *2203:X *603:12 43.5307 
2 *603:12 *1875:A1 38.1502 
*END

*D_NET *604 0.000205018
*CONN
*I *1805:A I *D sky130_fd_sc_hd__xor2_2
*I *2204:X O *D sky130_fd_sc_hd__dlygate4sd3_1
*CAP
1 *1805:A 2.53014e-05
2 *2204:X 2.53014e-05
3 *1805:A *2204:A 5.40971e-05
4 *1805:B *1805:A 0.000100318
*RES
1 *2204:X *1805:A 47.0979 
*END

*D_NET *605 0.000274367
*CONN
*I *1693:A I *D sky130_fd_sc_hd__xnor2_2
*I *2205:X O *D sky130_fd_sc_hd__dlygate4sd3_1
*CAP
1 *1693:A 0
2 *2205:X 0.000104265
3 *605:8 0.000104265
4 *390:8 *605:8 0
5 *542:10 *605:8 1.83564e-05
6 *542:43 *605:8 4.74809e-05
*RES
1 *2205:X *605:8 39.9057 
2 *605:8 *1693:A 38 
*END

*D_NET *606 0.00045033
*CONN
*I *1908:B1 I *D sky130_fd_sc_hd__a21oi_2
*I *2206:X O *D sky130_fd_sc_hd__dlygate4sd3_1
*CAP
1 *1908:B1 0
2 *2206:X 0.000154299
3 *606:10 0.000154299
4 *606:10 *670:29 0
5 *2154:A *606:10 6.17437e-06
6 *521:31 *606:10 0.000135557
*RES
1 *2206:X *606:10 40.5271 
2 *606:10 *1908:B1 38 
*END

*D_NET *607 0.000172142
*CONN
*I *1692:A I *D sky130_fd_sc_hd__xor2_2
*I *2207:X O *D sky130_fd_sc_hd__dlygate4sd3_1
*CAP
1 *1692:A 8.60708e-05
2 *2207:X 8.60708e-05
*RES
1 *2207:X *1692:A 47.5743 
*END

*D_NET *608 0.000316084
*CONN
*I *1883:A1 I *D sky130_fd_sc_hd__o211a_2
*I *2208:X O *D sky130_fd_sc_hd__dlygate4sd3_1
*CAP
1 *1883:A1 5.51955e-05
2 *2208:X 5.51955e-05
3 *1883:B1 *1883:A1 9.00315e-05
4 *263:10 *1883:A1 5.50049e-05
5 *492:79 *1883:A1 6.06568e-05
*RES
1 *2208:X *1883:A1 47.8746 
*END

*D_NET *609 0.00213765
*CONN
*I *1916:B1 I *D sky130_fd_sc_hd__a21oi_2
*I *2209:X O *D sky130_fd_sc_hd__dlygate4sd3_1
*CAP
1 *1916:B1 0
2 *2209:X 0.000521658
3 *609:10 0.000521658
4 *609:10 *625:16 5.25848e-05
5 *609:10 *636:60 0.00019911
6 *609:10 *638:12 0.000129092
7 *609:10 *657:10 0
8 *528:18 *609:10 0.000321554
9 *528:20 *609:10 1.30556e-05
10 *531:12 *609:10 0.000378933
*RES
1 *2209:X *609:10 49.455 
2 *609:10 *1916:B1 38 
*END

*D_NET *610 0.000871243
*CONN
*I *1870:B1 I *D sky130_fd_sc_hd__a21oi_2
*I *2210:X O *D sky130_fd_sc_hd__dlygate4sd3_1
*CAP
1 *1870:B1 0
2 *2210:X 0.000160319
3 *610:10 0.000160319
4 *610:10 *702:24 0.000110382
5 *1869:A1 *610:10 0.000233211
6 *1869:A2 *610:10 5.58003e-05
7 *494:10 *610:10 0.000151211
*RES
1 *2210:X *610:10 27.9507 
2 *610:10 *1870:B1 23 
*END

*D_NET *611 0.000425784
*CONN
*I *1820:A I *D sky130_fd_sc_hd__xor2_2
*I *2211:X O *D sky130_fd_sc_hd__dlygate4sd3_1
*CAP
1 *1820:A 0
2 *2211:X 0.000144533
3 *611:10 0.000144533
4 *611:10 *1822:A1 5.50106e-05
5 *611:10 *741:19 8.17076e-05
6 *539:48 *611:10 0
*RES
1 *2211:X *611:10 40.8793 
2 *611:10 *1820:A 38 
*END

*D_NET *612 0.000136196
*CONN
*I *1671:A I *D sky130_fd_sc_hd__xor2_2
*I *2212:X O *D sky130_fd_sc_hd__dlygate4sd3_1
*CAP
1 *1671:A 6.80978e-05
2 *2212:X 6.80978e-05
*RES
1 *2212:X *1671:A 47.0979 
*END

*D_NET *613 0.0026792
*CONN
*I *2277:A I *D sky130_fd_sc_hd__clkdlybuf4s25_1
*I *2121:Q O *D sky130_fd_sc_hd__dfstp_2
*CAP
1 *2277:A 0.00016737
2 *2121:Q 0.000874695
3 *613:12 0.00104207
4 *2277:A *636:60 2.40062e-05
5 *2277:A *647:38 0
6 *2277:A *670:125 0
7 *613:12 *636:60 7.03367e-05
8 *613:12 *647:38 0
9 *613:12 *657:10 0.000131416
10 *613:12 *658:36 1.84665e-05
11 *613:12 *661:42 0.000230726
12 *169:79 *613:12 9.95642e-05
13 *279:20 *2277:A 2.05503e-05
*RES
1 *2121:Q *613:12 49.7761 
2 *613:12 *2277:A 40.4339 
*END

*D_NET *614 0.00454135
*CONN
*I *2278:A I *D sky130_fd_sc_hd__clkdlybuf4s25_1
*I *2173:A I *D sky130_fd_sc_hd__dlygate4sd3_1
*I *1911:A I *D sky130_fd_sc_hd__and4_2
*I *2040:Q O *D sky130_fd_sc_hd__dfxtp_2
*CAP
1 *2278:A 0.00043256
2 *2173:A 0
3 *1911:A 0.000427482
4 *2040:Q 0.000266848
5 *614:25 0.000736464
6 *614:8 0.000998234
7 *1911:A *1910:A 5.36546e-05
8 *2278:A *647:8 0
9 *2278:A *660:14 1.0092e-05
10 *1910:B *1911:A 0
11 *1910:B *614:25 0
12 *2274:A *1911:A 7.87243e-05
13 *109:10 *2278:A 0.000355345
14 *109:10 *614:25 7.39525e-05
15 *110:8 *2278:A 0.000103405
16 *273:10 *1911:A 0.00024312
17 *277:18 *2278:A 0
18 *520:18 *614:8 2.85597e-05
19 *569:41 *1911:A 0
20 *602:35 *2278:A 0.000428682
21 *602:35 *614:25 0.000304222
*RES
1 *2040:Q *614:8 41.48 
2 *614:8 *1911:A 45.8507 
3 *614:8 *614:25 7.25 
4 *614:25 *2173:A 38 
5 *614:25 *2278:A 48.9993 
*END

*D_NET *615 0.00117141
*CONN
*I *1795:A1 I *D sky130_fd_sc_hd__a21bo_2
*I *2213:X O *D sky130_fd_sc_hd__dlygate4sd3_1
*CAP
1 *1795:A1 0
2 *2213:X 0.000316487
3 *615:6 0.000316487
4 *615:6 *1715:B 2.95526e-05
5 *615:6 *1715:C 7.58384e-05
6 *615:6 *2162:A 9.98623e-05
7 *615:6 *2213:A 0.000186038
8 *615:6 *694:16 8.289e-06
9 *615:6 *717:21 0.000138859
*RES
1 *2213:X *615:6 30.2914 
2 *615:6 *1795:A1 23 
*END

*D_NET *616 0.0013575
*CONN
*I *1791:B1 I *D sky130_fd_sc_hd__a21o_2
*I *2214:X O *D sky130_fd_sc_hd__dlygate4sd3_1
*CAP
1 *1791:B1 4.24774e-05
2 *2214:X 0.000250864
3 *616:10 0.000293342
4 *616:10 *692:59 0
5 *616:10 *721:10 0
6 *1793:B *1791:B1 5.28582e-05
7 *2094:CLK *616:10 5.3304e-05
8 *2215:A *1791:B1 0.00010018
9 *220:10 *616:10 0.000163352
10 *425:14 *616:10 8.62783e-05
11 *552:62 *1791:B1 0.00010018
12 *552:62 *616:10 0.000159661
13 *553:34 *1791:B1 5.50049e-05
*RES
1 *2214:X *616:10 43.3443 
2 *616:10 *1791:B1 40.0507 
*END

*D_NET *617 0.000553981
*CONN
*I *2093:D I *D sky130_fd_sc_hd__dfrtp_2
*I *2215:X O *D sky130_fd_sc_hd__dlygate4sd3_1
*CAP
1 *2093:D 0
2 *2215:X 0.000228124
3 *617:10 0.000228124
4 *1793:A *617:10 5.37348e-06
5 *1793:B *617:10 5.67058e-05
6 *537:14 *617:10 3.56537e-05
*RES
1 *2215:X *617:10 41.6043 
2 *617:10 *2093:D 38 
*END

*D_NET *618 0.000420852
*CONN
*I *1740:A1 I *D sky130_fd_sc_hd__o22a_2
*I *2216:X O *D sky130_fd_sc_hd__dlygate4sd3_1
*CAP
1 *1740:A1 5.65688e-05
2 *2216:X 5.65688e-05
3 *1740:A1 *692:10 0.000141355
4 *1740:A2 *1740:A1 2.50118e-05
5 *181:10 *1740:A1 0.000141347
*RES
1 *2216:X *1740:A1 48.0507 
*END

*D_NET *619 0.000943136
*CONN
*I *1858:B1 I *D sky130_fd_sc_hd__a21oi_2
*I *2217:X O *D sky130_fd_sc_hd__dlygate4sd3_1
*CAP
1 *1858:B1 0
2 *2217:X 0.000129345
3 *619:6 0.000129345
4 *1711:A2 *619:6 5.50106e-05
5 *1711:B1_N *619:6 0.000135143
6 *483:39 *619:6 5.41288e-05
7 *486:6 *619:6 0.000440163
*RES
1 *2217:X *619:6 27.9093 
2 *619:6 *1858:B1 23 
*END

*D_NET *620 0.000529421
*CONN
*I *1824:A I *D sky130_fd_sc_hd__xor2_2
*I *2218:X O *D sky130_fd_sc_hd__dlygate4sd3_1
*CAP
1 *1824:A 0
2 *2218:X 9.64448e-05
3 *620:10 9.64448e-05
4 *620:10 *685:26 0.000141252
5 *468:14 *620:10 0.000141975
6 *549:99 *620:10 5.3304e-05
*RES
1 *2218:X *620:10 40.5271 
2 *620:10 *1824:A 38 
*END

*D_NET *621 0.00186654
*CONN
*I *1803:B1 I *D sky130_fd_sc_hd__a21oi_2
*I *2219:X O *D sky130_fd_sc_hd__dlygate4sd3_1
*CAP
1 *1803:B1 0.000427217
2 *2219:X 0.000228639
3 *621:8 0.000655856
4 *1803:B1 *1803:A1 9.69584e-05
5 *621:8 *687:36 0.000166129
6 *1830:A *1803:B1 0.000191255
7 *1830:B *1803:B1 0.000100486
*RES
1 *2219:X *621:8 42.3707 
2 *621:8 *1803:B1 46.265 
*END

*D_NET *622 0.00119366
*CONN
*I *1804:B I *D sky130_fd_sc_hd__nor2_2
*I *2220:X O *D sky130_fd_sc_hd__dlygate4sd3_1
*CAP
1 *1804:B 0
2 *2220:X 0.000175676
3 *622:8 0.000175676
4 *622:8 *1651:C 9.91101e-05
5 *622:8 *1651:D 6.23756e-05
6 *622:8 *685:51 0.000535761
7 *622:8 *740:44 2.64616e-05
8 *622:8 *740:61 5.12254e-05
9 *157:10 *622:8 6.73714e-05
*RES
1 *2220:X *622:8 29.3593 
2 *622:8 *1804:B 23 
*END

*D_NET *623 0.00142998
*CONN
*I *1802:B I *D sky130_fd_sc_hd__xor2_2
*I *2221:X O *D sky130_fd_sc_hd__dlygate4sd3_1
*CAP
1 *1802:B 3.41967e-05
2 *2221:X 0.000504361
3 *623:10 0.000538558
4 *623:10 *625:90 2.93845e-05
5 *623:10 *636:10 0
6 *623:10 *648:8 0
7 *457:10 *623:10 0.000108319
8 *522:16 *623:10 0.000179685
9 *549:28 *623:10 3.54739e-05
*RES
1 *2221:X *623:10 47.3836 
2 *623:10 *1802:B 15.5489 
*END

*D_NET *624 0.000458563
*CONN
*I *1721:B1 I *D sky130_fd_sc_hd__o31a_2
*I *2222:X O *D sky130_fd_sc_hd__dlygate4sd3_1
*CAP
1 *1721:B1 0
2 *2222:X 0.000112468
3 *624:10 0.000112468
4 *1784:A *624:10 6.93553e-05
5 *1784:B *624:10 1.94693e-05
6 *331:10 *624:10 6.07611e-06
7 *332:23 *624:10 0.000138727
*RES
1 *2222:X *624:10 40.5271 
2 *624:10 *1721:B1 38 
*END

*D_NET *625 0.00920016
*CONN
*I *1917:A2 I *D sky130_fd_sc_hd__a31o_2
*I *2243:A I *D sky130_fd_sc_hd__dlygate4sd3_1
*I *2252:A I *D sky130_fd_sc_hd__dlygate4sd3_1
*I *1914:A1 I *D sky130_fd_sc_hd__a21oi_2
*I *1919:A2 I *D sky130_fd_sc_hd__a31o_2
*I *1920:C I *D sky130_fd_sc_hd__and3_2
*I *2279:A I *D sky130_fd_sc_hd__clkdlybuf4s25_1
*I *2041:Q O *D sky130_fd_sc_hd__dfxtp_2
*CAP
1 *1917:A2 0
2 *2243:A 0
3 *2252:A 0
4 *1914:A1 0
5 *1919:A2 0
6 *1920:C 0
7 *2279:A 0.000643474
8 *2041:Q 0
9 *625:90 0.000274531
10 *625:77 0.000386008
11 *625:58 0.000899717
12 *625:39 0.00111994
13 *625:24 0.000882016
14 *625:20 0.000269827
15 *625:16 0.00054662
16 *625:4 0.000406593
17 *2279:A *670:29 3.71624e-05
18 *625:16 *636:20 0
19 *625:16 *636:34 6.17437e-06
20 *625:16 *638:12 0
21 *625:20 *1914:A2 5.90675e-06
22 *625:20 *657:10 1.83408e-05
23 *625:20 *670:23 2.93747e-05
24 *625:20 *670:36 4.05745e-05
25 *625:24 *670:23 1.41077e-05
26 *625:39 *658:29 0
27 *625:58 *636:60 2.26497e-05
28 *625:58 *647:38 0.000466652
29 *625:58 *670:125 2.26497e-05
30 *625:58 *687:63 1.31905e-05
31 *625:90 *670:70 2.2324e-05
32 *625:90 *685:51 0
33 *625:90 *688:68 1.86822e-05
34 *1908:A2 *2279:A 0.000140259
35 *1913:A2 *625:16 0.000180224
36 *1913:A2 *625:77 0.000218329
37 *1913:A2 *625:90 5.69371e-05
38 *1915:B1 *625:16 0.000133316
39 *1918:A *625:39 8.53831e-05
40 *1918:A *625:58 7.66914e-06
41 *1918:B *625:39 8.11441e-05
42 *122:12 *2279:A 2.26406e-05
43 *249:10 *625:58 8.6244e-05
44 *276:8 *2279:A 2.72055e-05
45 *276:8 *625:39 3.35885e-06
46 *278:18 *625:58 0.00018277
47 *279:20 *625:58 0.000116553
48 *519:8 *2279:A 7.46384e-05
49 *521:31 *2279:A 9.64237e-05
50 *521:31 *625:39 0.000360463
51 *523:8 *625:16 1.72202e-05
52 *523:8 *625:20 0.000349873
53 *528:18 *625:16 0.000110598
54 *528:32 *625:58 6.91438e-05
55 *547:45 *625:20 6.68822e-05
56 *547:45 *625:24 5.50106e-05
57 *570:16 *2279:A 9.01073e-05
58 *570:16 *625:16 8.87132e-05
59 *570:16 *625:77 0.000225863
60 *570:16 *625:90 2.47127e-05
61 *609:10 *625:16 5.25848e-05
62 *623:10 *625:90 2.93845e-05
*RES
1 *2041:Q *625:4 23 
2 *625:4 *625:16 36.7321 
3 *625:16 *625:20 5.88286 
4 *625:20 *625:24 15.6214 
5 *625:24 *2279:A 49.7036 
6 *625:24 *625:39 6.13143 
7 *625:39 *1920:C 38 
8 *625:39 *625:58 39.3334 
9 *625:58 *1919:A2 23 
10 *625:20 *1914:A1 23 
11 *625:16 *2252:A 23 
12 *625:4 *625:77 4.93 
13 *625:77 *2243:A 23 
14 *625:77 *625:90 35.2407 
15 *625:90 *1917:A2 23 
*END

*D_NET *626 0.000627108
*CONN
*I *1722:B1 I *D sky130_fd_sc_hd__o31a_2
*I *2223:X O *D sky130_fd_sc_hd__dlygate4sd3_1
*CAP
1 *1722:B1 9.02455e-05
2 *2223:X 9.02455e-05
3 *1722:B1 *1621:A2 0.000146493
4 *1722:B1 *708:16 5.67058e-05
5 *1722:A2 *1722:B1 4.6448e-05
6 *330:6 *1722:B1 0.00014196
7 *450:33 *1722:B1 5.50106e-05
*RES
1 *2223:X *1722:B1 49.6457 
*END

*D_NET *627 0.00414856
*CONN
*I *1846:B1 I *D sky130_fd_sc_hd__a21oi_2
*I *2224:X O *D sky130_fd_sc_hd__dlygate4sd3_1
*CAP
1 *1846:B1 0
2 *2224:X 0.000568043
3 *627:10 0.000568043
4 *627:10 *1846:A1 0.000164047
5 *627:10 *1847:B1 9.84851e-05
6 *627:10 *659:36 5.50049e-05
7 *627:10 *659:38 0.0001164
8 *627:10 *659:44 0.000193373
9 *627:10 *659:82 0.000799604
10 *627:10 *678:45 0.00104281
11 *251:10 *627:10 5.67058e-05
12 *418:22 *627:10 5.67058e-05
13 *419:8 *627:10 8.70252e-05
14 *447:72 *627:10 5.67058e-05
15 *478:10 *627:10 5.50049e-05
16 *481:12 *627:10 0.000230604
*RES
1 *2224:X *627:10 46.1793 
2 *627:10 *1846:B1 23 
*END

*D_NET *628 0.000105752
*CONN
*I *1894:A1 I *D sky130_fd_sc_hd__o21ba_2
*I *2225:X O *D sky130_fd_sc_hd__dlygate4sd3_1
*CAP
1 *1894:A1 8.37909e-06
2 *2225:X 8.37909e-06
3 *1893:A1 *1894:A1 5.67058e-05
4 *563:24 *1894:A1 3.22879e-05
*RES
1 *2225:X *1894:A1 46.6214 
*END

*D_NET *629 0.000745557
*CONN
*I *1792:A I *D sky130_fd_sc_hd__and2_2
*I *2226:X O *D sky130_fd_sc_hd__dlygate4sd3_1
*CAP
1 *1792:A 9.14472e-05
2 *2226:X 0.000100954
3 *629:8 0.000192401
4 *1792:A *694:8 9.65021e-05
5 *629:8 *701:57 3.67805e-05
6 *629:8 *720:24 0
7 *25:8 *1792:A 0.000227473
*RES
1 *2226:X *629:8 39.9057 
2 *629:8 *1792:A 40.5271 
*END

*D_NET *630 0.00045201
*CONN
*I *1695:A I *D sky130_fd_sc_hd__nor2_2
*I *2227:X O *D sky130_fd_sc_hd__dlygate4sd3_1
*CAP
1 *1695:A 0.000222841
2 *2227:X 0.000222841
3 *1695:A *1959:A 6.32866e-06
*RES
1 *2227:X *1695:A 49.9771 
*END

*D_NET *631 0.000610175
*CONN
*I *1781:B I *D sky130_fd_sc_hd__and2b_2
*I *2228:X O *D sky130_fd_sc_hd__dlygate4sd3_1
*CAP
1 *1781:B 9.60428e-05
2 *2228:X 9.60428e-05
3 *445:10 *1781:B 0.000275411
4 *449:48 *1781:B 0.000142678
*RES
1 *2228:X *1781:B 49.0036 
*END

*D_NET *632 0.00145713
*CONN
*I *1813:A I *D sky130_fd_sc_hd__xnor2_2
*I *2229:X O *D sky130_fd_sc_hd__dlygate4sd3_1
*CAP
1 *1813:A 0.0001058
2 *2229:X 0.000286866
3 *632:10 0.000392667
4 *632:10 *1810:A 0.000142678
5 *632:10 *752:12 3.41301e-05
6 *632:10 *752:16 8.0612e-06
7 *161:10 *632:10 0.000100486
8 *459:43 *632:10 2.4754e-05
9 *459:58 *632:10 0.000280954
10 *460:8 *632:10 8.07381e-05
*RES
1 *2229:X *632:10 45.1671 
2 *632:10 *1813:A 39.5743 
*END

*D_NET *633 0.000219996
*CONN
*I *1780:A I *D sky130_fd_sc_hd__or2_2
*I *2230:X O *D sky130_fd_sc_hd__dlygate4sd3_1
*CAP
1 *1780:A 7.76547e-05
2 *2230:X 7.76547e-05
3 *1780:B *1780:A 2.93747e-05
4 *144:10 *1780:A 3.53115e-05
*RES
1 *2230:X *1780:A 47.5743 
*END

*D_NET *634 0.000760422
*CONN
*I *1724:B1 I *D sky130_fd_sc_hd__a21oi_2
*I *2231:X O *D sky130_fd_sc_hd__dlygate4sd3_1
*CAP
1 *1724:B1 0
2 *2231:X 0.000166919
3 *634:8 0.000166919
4 *634:8 *641:10 0.000348173
5 *557:32 *634:8 7.84105e-05
*RES
1 *2231:X *634:8 42.7229 
2 *634:8 *1724:B1 38 
*END

*D_NET *635 0.00139953
*CONN
*I *1682:B1 I *D sky130_fd_sc_hd__a21oi_2
*I *2232:X O *D sky130_fd_sc_hd__dlygate4sd3_1
*CAP
1 *1682:B1 0.000135452
2 *2232:X 9.62732e-05
3 *635:8 0.000231725
4 *1682:B1 *674:36 0.000144494
5 *635:8 *1657:B 0.000280866
6 *635:8 *770:19 7.70737e-05
7 *1682:A1 *1682:B1 2.31687e-05
8 *359:12 *1682:B1 5.25436e-05
9 *372:14 *635:8 0.000357939
*RES
1 *2232:X *635:8 42.7229 
2 *635:8 *1682:B1 41.0036 
*END

*D_NET *636 0.00670944
*CONN
*I *2209:A I *D sky130_fd_sc_hd__dlygate4sd3_1
*I *1917:A1 I *D sky130_fd_sc_hd__a31o_2
*I *1919:A1 I *D sky130_fd_sc_hd__a31o_2
*I *1920:B I *D sky130_fd_sc_hd__and3_2
*I *2280:A I *D sky130_fd_sc_hd__clkdlybuf4s25_1
*I *2042:Q O *D sky130_fd_sc_hd__dfxtp_2
*CAP
1 *2209:A 0
2 *1917:A1 0.000442196
3 *1919:A1 0
4 *1920:B 0
5 *2280:A 0
6 *2042:Q 0.000297854
7 *636:60 0.000476743
8 *636:44 0.000199878
9 *636:36 0.000522361
10 *636:34 0.00127173
11 *636:20 0.000989269
12 *636:12 7.45708e-05
13 *636:10 0.000297854
14 *1917:A1 *1917:A3 5.56356e-05
15 *1917:A1 *1997:A 0
16 *1917:A1 *670:51 8.7283e-06
17 *1917:A1 *670:62 0.00011665
18 *636:10 *648:8 8.62876e-05
19 *636:10 *670:42 0.000141386
20 *636:20 *1921:A 0
21 *636:44 *647:12 3.7122e-06
22 *636:44 *647:21 9.87985e-06
23 *636:44 *647:38 2.38387e-06
24 *636:44 *658:29 5.61414e-05
25 *636:60 *657:10 7.50075e-05
26 *636:60 *670:125 3.62566e-05
27 *1924:A1 *636:34 4.15283e-06
28 *2277:A *636:60 2.40062e-05
29 *169:18 *636:34 0.000180232
30 *521:31 *636:36 0.000267173
31 *521:31 *636:44 0.000138427
32 *527:8 *636:34 6.17437e-06
33 *527:8 *636:36 9.16459e-05
34 *527:17 *636:34 8.56254e-05
35 *528:18 *1917:A1 2.47815e-05
36 *528:18 *636:20 9.92896e-05
37 *528:18 *636:34 0.000316988
38 *531:12 *636:60 8.15379e-06
39 *609:10 *636:60 0.00019911
40 *613:12 *636:60 7.03367e-05
41 *623:10 *636:10 0
42 *625:16 *636:20 0
43 *625:16 *636:34 6.17437e-06
44 *625:58 *636:60 2.26497e-05
*RES
1 *2042:Q *636:10 43.3443 
2 *636:10 *636:12 15 
3 *636:12 *636:20 2.58929 
4 *636:20 *636:34 38.41 
5 *636:34 *636:36 4.90929 
6 *636:36 *636:44 33.8321 
7 *636:44 *2280:A 23 
8 *636:36 *1920:B 23 
9 *636:34 *636:60 38.5964 
10 *636:60 *1919:A1 23 
11 *636:20 *1917:A1 30.9543 
12 *636:12 *2209:A 23 
*END

*D_NET *637 0.000639682
*CONN
*I *1899:A1 I *D sky130_fd_sc_hd__o21a_2
*I *2233:X O *D sky130_fd_sc_hd__dlygate4sd3_1
*CAP
1 *1899:A1 0
2 *2233:X 0.000245328
3 *637:10 0.000245328
4 *637:10 *679:129 0
5 *1898:A1 *637:10 7.24484e-05
6 *1899:A2 *637:10 5.56306e-05
7 *492:87 *637:10 4.6318e-06
8 *496:41 *637:10 6.07611e-06
9 *513:10 *637:10 1.02387e-05
*RES
1 *2233:X *637:10 42.3086 
2 *637:10 *1899:A1 38 
*END

*D_NET *638 0.00259579
*CONN
*I *1907:A1 I *D sky130_fd_sc_hd__o21a_2
*I *2234:X O *D sky130_fd_sc_hd__dlygate4sd3_1
*CAP
1 *1907:A1 0
2 *2234:X 4.2104e-05
3 *638:12 0.00066046
4 *638:8 0.000702564
5 *638:12 *648:8 0
6 *638:12 *682:68 0
7 *1906:A2 *638:12 0.00032643
8 *1907:A2 *638:12 0.000457912
9 *1915:B1 *638:12 0
10 *275:8 *638:12 0.000110532
11 *518:10 *638:12 2.96901e-05
12 *522:10 *638:8 1.73399e-05
13 *528:18 *638:12 3.45354e-05
14 *535:351 *638:12 8.51329e-05
15 *609:10 *638:12 0.000129092
16 *625:16 *638:12 0
*RES
1 *2234:X *638:8 38.6214 
2 *638:8 *638:12 30.9914 
3 *638:12 *1907:A1 23 
*END

*D_NET *639 0.000590619
*CONN
*I *1767:B1 I *D sky130_fd_sc_hd__o21a_2
*I *2235:X O *D sky130_fd_sc_hd__dlygate4sd3_1
*CAP
1 *1767:B1 0.00010994
2 *2235:X 0.00010994
3 *1767:B1 *701:24 0.000270261
4 *1767:A2 *1767:B1 0.000100477
*RES
1 *2235:X *1767:B1 49.0036 
*END

*D_NET *640 0.00109191
*CONN
*I *1864:A I *D sky130_fd_sc_hd__nor2_2
*I *2236:X O *D sky130_fd_sc_hd__dlygate4sd3_1
*CAP
1 *1864:A 0
2 *2236:X 0.000421911
3 *640:10 0.000421911
4 *640:10 *2293:A 1.94812e-05
5 *1864:B *640:10 0.000171906
6 *121:10 *640:10 5.67058e-05
7 *258:12 *640:10 0
*RES
1 *2236:X *640:10 44.6907 
2 *640:10 *1864:A 38 
*END

*D_NET *641 0.00198613
*CONN
*I *1723:B1 I *D sky130_fd_sc_hd__a21oi_2
*I *2237:X O *D sky130_fd_sc_hd__dlygate4sd3_1
*CAP
1 *1723:B1 6.78997e-05
2 *2237:X 0.000425773
3 *641:10 0.000493673
4 *1723:B1 *1751:B 9.68779e-05
5 *641:10 *2237:A 1.84831e-05
6 *641:10 *730:14 0.000457831
7 *641:10 *731:72 0
8 *641:10 *731:122 7.74223e-05
9 *634:8 *641:10 0.000348173
*RES
1 *2237:X *641:10 48.6264 
2 *641:10 *1723:B1 39.595 
*END

*D_NET *642 0.000753379
*CONN
*I *1694:A I *D sky130_fd_sc_hd__xor2_2
*I *2238:X O *D sky130_fd_sc_hd__dlygate4sd3_1
*CAP
1 *1694:A 0.000228515
2 *2238:X 7.65545e-05
3 *642:8 0.00030507
4 *642:8 *700:59 0
5 *305:8 *642:8 5.80963e-05
6 *542:43 *642:8 8.51432e-05
*RES
1 *2238:X *642:8 40.2579 
2 *642:8 *1694:A 41.48 
*END

*D_NET *643 0.000165742
*CONN
*I *1713:A1 I *D sky130_fd_sc_hd__o31ai_2
*I *2239:X O *D sky130_fd_sc_hd__dlygate4sd3_1
*CAP
1 *1713:A1 2.87323e-05
2 *2239:X 2.87323e-05
3 *404:16 *1713:A1 5.41385e-05
4 *405:8 *1713:A1 5.41385e-05
*RES
1 *2239:X *1713:A1 47.0979 
*END

*D_NET *644 0.000472318
*CONN
*I *1857:A1 I *D sky130_fd_sc_hd__o21a_2
*I *2240:X O *D sky130_fd_sc_hd__dlygate4sd3_1
*CAP
1 *1857:A1 7.83342e-05
2 *2240:X 7.83342e-05
3 *1857:A1 *681:94 5.3304e-05
4 *1857:A2 *1857:A1 8.12205e-05
5 *1886:B *1857:A1 0.000181125
*RES
1 *2240:X *1857:A1 48.5479 
*END

*D_NET *645 0.00140098
*CONN
*I *1702:B1 I *D sky130_fd_sc_hd__a21oi_2
*I *2241:X O *D sky130_fd_sc_hd__dlygate4sd3_1
*CAP
1 *1702:B1 4.08311e-05
2 *2241:X 0.000310746
3 *645:14 0.000351577
4 *1702:B1 *1702:A1 0.000188927
5 *645:14 *696:80 0
6 *1703:A *645:14 0.000407259
7 *1705:A *1702:B1 0.000101635
*RES
1 *2241:X *645:14 44.4629 
2 *645:14 *1702:B1 40.0507 
*END

*D_NET *646 0.00158706
*CONN
*I *1788:B2 I *D sky130_fd_sc_hd__a221o_2
*I *2242:X O *D sky130_fd_sc_hd__dlygate4sd3_1
*CAP
1 *1788:B2 1.95776e-05
2 *2242:X 0.000464315
3 *646:10 0.000483893
4 *1788:B2 *735:77 2.84288e-05
5 *445:10 *646:10 0.000407532
6 *445:18 *646:10 0
7 *449:48 *646:10 0.000161486
8 *545:8 *646:10 2.18286e-05
9 *555:14 *646:10 0
*RES
1 *2242:X *646:10 45.1671 
2 *646:10 *1788:B2 38.3314 
*END

*D_NET *647 0.00338481
*CONN
*I *1919:B1 I *D sky130_fd_sc_hd__a31o_2
*I *1920:A I *D sky130_fd_sc_hd__and3_2
*I *2281:A I *D sky130_fd_sc_hd__clkdlybuf4s25_1
*I *2043:Q O *D sky130_fd_sc_hd__dfxtp_2
*CAP
1 *1919:B1 0
2 *1920:A 0
3 *2281:A 0
4 *2043:Q 0.00024449
5 *647:38 0.000555197
6 *647:21 0.000601684
7 *647:12 0.000178325
8 *647:8 0.000376328
9 *647:8 *658:29 0.00025075
10 *647:38 *660:44 5.58003e-05
11 *647:38 *664:8 0.000144713
12 *1918:A *647:38 0.000119531
13 *1931:C *647:38 2.52012e-05
14 *2277:A *647:38 0
15 *2278:A *647:8 0
16 *124:12 *647:8 0
17 *249:10 *647:38 8.56503e-06
18 *521:31 *647:8 0
19 *521:31 *647:38 2.20111e-05
20 *526:14 *647:38 0.00031959
21 *602:35 *647:8 0
22 *613:12 *647:38 0
23 *625:58 *647:38 0.000466652
24 *636:44 *647:12 3.7122e-06
25 *636:44 *647:21 9.87985e-06
26 *636:44 *647:38 2.38387e-06
*RES
1 *2043:Q *647:8 43.075 
2 *647:8 *647:12 17.0507 
3 *647:12 *2281:A 23 
4 *647:12 *647:21 1.11857 
5 *647:21 *1920:A 23 
6 *647:21 *647:38 42.7393 
7 *647:38 *1919:B1 23 
*END

*D_NET *648 0.00076397
*CONN
*I *1915:A1 I *D sky130_fd_sc_hd__o21a_2
*I *2243:X O *D sky130_fd_sc_hd__dlygate4sd3_1
*CAP
1 *1915:A1 6.37462e-05
2 *2243:X 0.00022871
3 *648:8 0.000292456
4 *648:8 *670:42 8.26266e-05
5 *126:12 *648:8 0
6 *457:10 *648:8 0
7 *590:22 *648:8 1.01436e-05
8 *623:10 *648:8 0
9 *636:10 *648:8 8.62876e-05
10 *638:12 *648:8 0
*RES
1 *2243:X *648:8 43.075 
2 *648:8 *1915:A1 39.0979 
*END

*D_NET *649 0.00162784
*CONN
*I *1757:A1 I *D sky130_fd_sc_hd__mux2_1
*I *2244:X O *D sky130_fd_sc_hd__dlygate4sd3_1
*CAP
1 *1757:A1 0.000138708
2 *2244:X 0.000162223
3 *649:8 0.000300931
4 *649:8 *1750:C_N 0.000450491
5 *649:8 *712:25 6.15861e-05
6 *1757:A0 *1757:A1 5.50049e-05
7 *433:10 *649:8 1.01436e-05
8 *436:10 *649:8 5.22905e-05
9 *436:12 *649:8 0.000396462
*RES
1 *2244:X *649:8 44.8357 
2 *649:8 *1757:A1 39.5743 
*END

*D_NET *650 0.00158619
*CONN
*I *1836:A I *D sky130_fd_sc_hd__or4b_2
*I *2245:X O *D sky130_fd_sc_hd__dlygate4sd3_1
*CAP
1 *1836:A 0
2 *2245:X 0.000513533
3 *650:10 0.000513533
4 *1659:B *650:10 0.000138718
5 *1835:B1 *650:10 2.43944e-05
6 *366:23 *650:10 6.88885e-05
7 *472:8 *650:10 0.00026025
8 *473:10 *650:10 6.6869e-05
*RES
1 *2245:X *650:10 45.7679 
2 *650:10 *1836:A 38 
*END

*D_NET *651 0.0060229
*CONN
*I *1925:B1 I *D sky130_fd_sc_hd__a31o_2
*I *2246:X O *D sky130_fd_sc_hd__dlygate4sd3_1
*CAP
1 *1925:B1 0
2 *2246:X 0.000201395
3 *651:18 0.00122364
4 *651:8 0.00142504
5 *651:18 *2121:D 4.2812e-06
6 *651:18 *670:80 8.94569e-05
7 *651:18 *687:63 7.60468e-05
8 red[1] *651:18 0.000385738
9 *1931:C *651:18 0.0017261
10 *169:91 *651:8 1.09917e-05
11 *249:10 *651:8 0.00028359
12 *278:18 *651:8 1.31002e-05
13 *279:20 *651:18 0.000263915
14 *360:39 *651:18 7.22981e-06
15 *527:48 *651:18 4.70939e-05
16 *528:32 *651:18 9.71572e-05
17 *547:79 *651:8 0.000168121
*RES
1 *2246:X *651:8 42.5468 
2 *651:8 *651:18 35.9367 
3 *651:18 *1925:B1 23 
*END

*D_NET *652 0.00116281
*CONN
*I *1806:A I *D sky130_fd_sc_hd__xnor2_2
*I *2247:X O *D sky130_fd_sc_hd__dlygate4sd3_1
*CAP
1 *1806:A 9.04768e-05
2 *2247:X 0.000128501
3 *652:8 0.000218978
4 *652:8 *687:36 0.000191276
5 *652:8 *687:47 0.000154843
6 *360:21 *652:8 0.000346119
7 *362:26 *1806:A 3.26122e-05
*RES
1 *2247:X *652:8 42.7229 
2 *652:8 *1806:A 39.5743 
*END

*D_NET *653 0.000856609
*CONN
*I *1764:A I *D sky130_fd_sc_hd__and2_2
*I *2248:X O *D sky130_fd_sc_hd__dlygate4sd3_1
*CAP
1 *1764:A 0
2 *2248:X 0.000337687
3 *653:10 0.000337687
4 *653:10 *712:42 3.71251e-05
5 *653:10 *731:122 0.00014411
6 *437:23 *653:10 0
*RES
1 *2248:X *653:10 43.3857 
2 *653:10 *1764:A 38 
*END

*D_NET *654 0.0001978
*CONN
*I *1890:A I *D sky130_fd_sc_hd__nor2_2
*I *2249:X O *D sky130_fd_sc_hd__dlygate4sd3_1
*CAP
1 *1890:A 6.06429e-05
2 *2249:X 6.06429e-05
3 *2033:CLK *1890:A 5.3304e-05
4 *2249:A *1890:A 2.32101e-05
*RES
1 *2249:X *1890:A 47.0979 
*END

*D_NET *655 0.00136444
*CONN
*I *1929:A I *D sky130_fd_sc_hd__nand4_2
*I *2250:X O *D sky130_fd_sc_hd__dlygate4sd3_1
*CAP
1 *1929:A 0
2 *2250:X 0.000263536
3 *655:8 0.000263536
4 *655:8 *685:72 5.58003e-05
5 *1929:B *655:8 5.3304e-05
6 *521:48 *655:8 0.000475928
7 *527:8 *655:8 0.000126136
8 *527:17 *655:8 0.0001262
*RES
1 *2250:X *655:8 29.8357 
2 *655:8 *1929:A 23 
*END

*D_NET *656 0.000588437
*CONN
*I *1826:A1 I *D sky130_fd_sc_hd__a21oi_2
*I *2251:X O *D sky130_fd_sc_hd__dlygate4sd3_1
*CAP
1 *1826:A1 0
2 *2251:X 0.000183445
3 *656:10 0.000183445
4 *656:10 *688:27 9.41704e-05
5 *1826:A2 *656:10 2.49733e-05
6 *337:42 *656:10 1.83564e-05
7 *469:10 *656:10 8.4047e-05
*RES
1 *2251:X *656:10 41.0036 
2 *656:10 *1826:A1 38 
*END

*D_NET *657 0.0021668
*CONN
*I *1916:A1 I *D sky130_fd_sc_hd__a21oi_2
*I *2252:X O *D sky130_fd_sc_hd__dlygate4sd3_1
*CAP
1 *1916:A1 5.1959e-05
2 *2252:X 0.000572155
3 *657:10 0.000624114
4 *1916:A1 *661:27 3.54804e-05
5 *1916:A1 *670:125 0
6 *2046:CLK *657:10 0.000143722
7 *272:12 *657:10 7.89973e-05
8 *518:10 *657:10 0.000127002
9 *521:31 *657:10 5.93334e-05
10 *521:48 *657:10 5.91105e-05
11 *524:8 *1916:A1 5.3304e-05
12 *533:8 *657:10 4.31141e-05
13 *547:52 *657:10 2.36886e-05
14 *547:65 *657:10 4.73585e-05
15 *547:71 *657:10 2.27011e-05
16 *609:10 *657:10 0
17 *613:12 *657:10 0.000131416
18 *625:20 *657:10 1.83408e-05
19 *636:60 *657:10 7.50075e-05
*RES
1 *2252:X *657:10 48.9786 
2 *657:10 *1916:A1 39.1186 
*END

*D_NET *658 0.0104554
*CONN
*I *1925:A1 I *D sky130_fd_sc_hd__a31o_2
*I *1923:A1 I *D sky130_fd_sc_hd__a31o_2
*I *1926:B I *D sky130_fd_sc_hd__and2_2
*I *2282:A I *D sky130_fd_sc_hd__clkdlybuf4s25_1
*I *2184:A I *D sky130_fd_sc_hd__dlygate4sd3_1
*I *2044:Q O *D sky130_fd_sc_hd__dfxtp_2
*CAP
1 *1925:A1 0.000859411
2 *1923:A1 0.000237661
3 *1926:B 0
4 *2282:A 0
5 *2184:A 0
6 *2044:Q 0.000230998
7 *658:40 0.000460846
8 *658:36 0.0021684
9 *658:29 0.000300693
10 *658:21 0.00171181
11 *658:14 0.000334493
12 *658:6 0.0008908
13 *1923:A1 *661:27 1.92729e-05
14 *1923:A1 *664:8 0.000291016
15 *1923:A1 *670:87 0
16 *1923:A1 *670:100 1.41129e-05
17 *1923:A1 *670:115 7.52205e-05
18 *1925:A1 *2121:D 7.01168e-05
19 *1925:A1 *661:42 0.000108238
20 *658:14 *660:14 0.000346271
21 *658:36 *661:42 2.15233e-05
22 *658:40 *2250:A 4.81794e-05
23 *658:40 *661:27 8.16332e-05
24 *658:40 *670:87 0
25 *1925:A3 *1925:A1 5.79559e-05
26 *2044:D *658:21 0.00012948
27 *2044:D *658:36 0.000230471
28 *2046:D *658:36 0.000170984
29 *2121:SET_B *1925:A1 4.95815e-05
30 *1:8 *658:14 2.93335e-05
31 *4:8 *658:14 3.18142e-05
32 *114:10 *658:14 0.000209092
33 *123:10 *658:6 2.30639e-05
34 *123:10 *658:21 2.16227e-05
35 *169:79 *658:36 0.000177344
36 *169:91 *658:36 9.08709e-06
37 *323:16 *658:29 0.000231499
38 *521:31 *658:29 0
39 *526:14 *658:14 0.000188927
40 *527:30 *1923:A1 0.000183544
41 *528:32 *658:14 0
42 *529:10 *1923:A1 2.85501e-05
43 *549:55 *1925:A1 5.99885e-05
44 *549:68 *1925:A1 2.69729e-05
45 *613:12 *658:36 1.84665e-05
46 *625:39 *658:29 0
47 *636:44 *658:29 5.61414e-05
48 *647:8 *658:29 0.00025075
*RES
1 *2044:Q *658:6 26.0036 
2 *658:6 *658:14 38.5343 
3 *658:14 *2184:A 23 
4 *658:6 *658:21 4.43286 
5 *658:21 *658:29 37.6021 
6 *658:29 *2282:A 23 
7 *658:21 *658:36 13.9614 
8 *658:36 *658:40 19.0186 
9 *658:40 *1926:B 38 
10 *658:40 *1923:A1 43.8207 
11 *658:36 *1925:A1 35.0557 
*END

*D_NET *659 0.0104252
*CONN
*I *1846:A1 I *D sky130_fd_sc_hd__a21oi_2
*I *1847:A2 I *D sky130_fd_sc_hd__a31o_2
*I *1844:A1 I *D sky130_fd_sc_hd__a21oi_2
*I *1845:A1 I *D sky130_fd_sc_hd__o21a_2
*I *1849:A2 I *D sky130_fd_sc_hd__a31oi_2
*I *1850:C I *D sky130_fd_sc_hd__and4_2
*I *2283:A I *D sky130_fd_sc_hd__clkdlybuf4s25_1
*I *1852:D I *D sky130_fd_sc_hd__and4_2
*I *2017:Q O *D sky130_fd_sc_hd__dfxtp_2
*CAP
1 *1846:A1 0.000434031
2 *1847:A2 0
3 *1844:A1 0
4 *1845:A1 0
5 *1849:A2 0
6 *1850:C 5.17985e-05
7 *2283:A 0
8 *1852:D 8.48936e-05
9 *2017:Q 0
10 *659:82 0.000611637
11 *659:61 0.000263294
12 *659:44 0.000663869
13 *659:38 0.000404445
14 *659:36 8.90731e-05
15 *659:32 0.000328305
16 *659:14 0.000978745
17 *659:4 0.00101115
18 *1846:A1 *1847:B1 9.08201e-05
19 *1846:A1 *662:20 3.8749e-05
20 *1850:C *1850:B 2.64616e-05
21 *1852:D *666:22 5.10805e-05
22 *659:14 *1856:B1 1.19692e-05
23 *659:14 *666:22 6.7063e-05
24 *659:14 *678:16 0
25 *659:32 *1844:B1 0
26 *659:32 *678:28 0
27 *659:36 *662:20 1.76557e-05
28 *659:38 *662:20 9.14823e-05
29 *659:44 *1850:B 7.87877e-05
30 *659:44 *662:20 0.000572271
31 *659:44 *662:29 0.000145335
32 *659:61 *662:14 0
33 *659:61 *662:20 0
34 *659:61 *663:35 0.000347502
35 *659:61 *666:34 3.24141e-05
36 *659:82 *662:20 4.06227e-05
37 *1847:A3 *659:82 0.000610918
38 *1849:A3 *659:61 0.000437428
39 *1850:D *1850:C 5.56279e-05
40 *1856:A2 *659:14 2.76611e-06
41 *2020:CLK *1852:D 0.000356724
42 *191:8 *659:14 9.13954e-05
43 *254:14 *1852:D 0.000488848
44 *254:14 *659:14 0.000182826
45 *419:8 *1846:A1 4.77213e-05
46 *447:30 *659:14 0
47 *447:30 *659:32 6.00005e-05
48 *447:72 *659:36 0
49 *447:72 *659:44 3.55697e-05
50 *477:18 *659:38 5.50106e-05
51 *478:10 *1846:A1 2.31687e-05
52 *479:18 *659:14 9.79925e-05
53 *481:12 *1850:C 9.87385e-06
54 *481:12 *659:44 7.44161e-06
55 *536:10 *659:14 0
56 *627:10 *1846:A1 0.000164047
57 *627:10 *659:36 5.50049e-05
58 *627:10 *659:38 0.0001164
59 *627:10 *659:44 0.000193373
60 *627:10 *659:82 0.000799604
*RES
1 *2017:Q *659:4 23 
2 *659:4 *659:14 45.6186 
3 *659:14 *1852:D 28.3857 
4 *659:14 *2283:A 23 
5 *659:4 *659:32 31.9057 
6 *659:32 *659:36 1.11857 
7 *659:36 *659:38 2.52714 
8 *659:38 *659:44 11.2686 
9 *659:44 *1850:C 24.0979 
10 *659:44 *659:61 37.3743 
11 *659:61 *1849:A2 23 
12 *659:38 *1845:A1 23 
13 *659:36 *1844:A1 23 
14 *659:32 *659:82 9.76679 
15 *659:82 *1847:A2 23 
16 *659:82 *1846:A1 31.8761 
*END

*D_NET *660 0.00643074
*CONN
*I *1926:A I *D sky130_fd_sc_hd__and2_2
*I *2246:A I *D sky130_fd_sc_hd__dlygate4sd3_1
*I *2284:A I *D sky130_fd_sc_hd__clkdlybuf4s25_1
*I *2045:Q O *D sky130_fd_sc_hd__dfxtp_2
*CAP
1 *1926:A 0
2 *2246:A 1.56031e-05
3 *2284:A 0
4 *2045:Q 0.000177639
5 *660:52 0.000257826
6 *660:44 0.00052297
7 *660:27 0.000601436
8 *660:14 0.000364217
9 *660:6 0.000862546
10 *2246:A *664:8 5.56279e-05
11 *660:44 *664:8 0.00117397
12 *660:52 *1927:B1 5.3304e-05
13 *660:52 *688:95 0.000131711
14 *2122:SET_B *660:44 0.000722569
15 *2278:A *660:14 1.0092e-05
16 *110:8 *660:14 8.16277e-05
17 *114:10 *660:14 4.15283e-06
18 *169:91 *660:6 0.000123693
19 *169:91 *660:14 0
20 *169:91 *660:27 0.000146622
21 *277:18 *660:14 0
22 *278:10 *660:52 8.8725e-05
23 *526:14 *2246:A 5.56279e-05
24 *526:14 *660:44 0.000323463
25 *527:23 *660:52 0.000177741
26 *529:10 *660:52 3.21898e-05
27 *531:12 *660:52 4.53082e-05
28 *647:38 *660:44 5.58003e-05
29 *658:14 *660:14 0.000346271
*RES
1 *2045:Q *660:6 25.5271 
2 *660:6 *660:14 38.0579 
3 *660:14 *2284:A 23 
4 *660:6 *660:27 34.9093 
5 *660:27 *2246:A 23.6214 
6 *660:27 *660:44 43.5264 
7 *660:44 *660:52 35.2407 
8 *660:52 *1926:A 23 
*END

*D_NET *661 0.004693
*CONN
*I *1930:B1 I *D sky130_fd_sc_hd__a31o_2
*I *2285:A I *D sky130_fd_sc_hd__clkdlybuf4s25_1
*I *2250:A I *D sky130_fd_sc_hd__dlygate4sd3_1
*I *2046:Q O *D sky130_fd_sc_hd__dfxtp_2
*CAP
1 *1930:B1 0
2 *2285:A 0
3 *2250:A 0.000176561
4 *2046:Q 0
5 *661:42 0.000404403
6 *661:27 0.000732188
7 *661:6 0.000908749
8 *661:4 0.000404403
9 *2250:A *670:70 0
10 *2250:A *685:72 0.000100486
11 *2250:A *688:87 0.000232967
12 *661:27 *670:125 6.54264e-05
13 *661:27 *688:87 0.000125853
14 *661:42 *670:87 5.32093e-05
15 *1916:A1 *661:27 3.54804e-05
16 *1923:A1 *661:27 1.92729e-05
17 *1925:A1 *661:42 0.000108238
18 *1930:A1 *661:42 4.86526e-05
19 *1930:A3 *661:42 0.000100486
20 *278:18 *661:27 2.03764e-06
21 *279:20 *661:27 0.000102551
22 *524:8 *661:27 5.09429e-05
23 *527:23 *661:27 1.63405e-05
24 *527:83 *2250:A 0.00010018
25 *529:10 *661:27 5.78554e-05
26 *531:12 *661:27 0.00035058
27 *532:10 *661:42 5.82853e-05
28 *547:71 *661:27 5.5792e-05
29 *613:12 *661:42 0.000230726
30 *658:36 *661:42 2.15233e-05
31 *658:40 *2250:A 4.81794e-05
32 *658:40 *661:27 8.16332e-05
*RES
1 *2046:Q *661:4 23 
2 *661:4 *661:6 15 
3 *661:6 *2250:A 42.4121 
4 *661:6 *661:27 27.5529 
5 *661:27 *2285:A 23 
6 *661:4 *661:42 39.57 
7 *661:42 *1930:B1 23 
*END

*D_NET *662 0.00835778
*CONN
*I *2286:A I *D sky130_fd_sc_hd__clkdlybuf4s25_1
*I *1852:C I *D sky130_fd_sc_hd__and4_2
*I *1849:A1 I *D sky130_fd_sc_hd__a31oi_2
*I *2224:A I *D sky130_fd_sc_hd__dlygate4sd3_1
*I *1850:B I *D sky130_fd_sc_hd__and4_2
*I *1847:A1 I *D sky130_fd_sc_hd__a31o_2
*I *2018:Q O *D sky130_fd_sc_hd__dfxtp_2
*CAP
1 *2286:A 0
2 *1852:C 0
3 *1849:A1 4.3266e-05
4 *2224:A 0
5 *1850:B 9.01437e-05
6 *1847:A1 0
7 *2018:Q 4.61395e-05
8 *662:73 0.000143089
9 *662:60 0.000616041
10 *662:45 0.000618328
11 *662:29 0.000154602
12 *662:20 0.00117964
13 *662:14 0.00152145
14 *662:8 0.0004256
15 *1849:A1 *2191:A 0.000100061
16 *662:14 *663:35 0
17 *662:60 *663:57 0.000471526
18 *662:60 *666:34 0.000506302
19 *662:60 *666:41 0.000122919
20 *662:73 *1865:D 2.76611e-06
21 *662:73 *666:41 3.98859e-05
22 *1846:A1 *662:20 3.8749e-05
23 *1847:A3 *662:20 0.000495538
24 *1850:C *1850:B 2.64616e-05
25 *2018:CLK *662:8 2.95526e-05
26 *254:14 *662:60 9.5877e-05
27 *254:14 *662:73 8.6949e-05
28 *477:18 *662:14 0
29 *477:18 *662:20 5.67058e-05
30 *478:22 *1849:A1 2.64616e-05
31 *478:32 *662:14 1.00084e-05
32 *478:32 *662:45 7.2918e-05
33 *481:12 *1850:B 9.9075e-05
34 *481:12 *662:14 0
35 *481:12 *662:29 0.00015285
36 *482:8 *662:73 0.000138727
37 *659:36 *662:20 1.76557e-05
38 *659:38 *662:20 9.14823e-05
39 *659:44 *1850:B 7.87877e-05
40 *659:44 *662:20 0.000572271
41 *659:44 *662:29 0.000145335
42 *659:61 *662:14 0
43 *659:61 *662:20 0
44 *659:82 *662:20 4.06227e-05
*RES
1 *2018:Q *662:8 38.6214 
2 *662:8 *662:14 4.43286 
3 *662:14 *662:20 34.4507 
4 *662:20 *1847:A1 23 
5 *662:14 *662:29 18.0036 
6 *662:29 *1850:B 25.5479 
7 *662:29 *2224:A 23 
8 *662:8 *662:45 1.90571 
9 *662:45 *1849:A1 39.0979 
10 *662:45 *662:60 25.7507 
11 *662:60 *1852:C 23 
12 *662:60 *662:73 33.0036 
13 *662:73 *2286:A 23 
*END

*D_NET *663 0.00486658
*CONN
*I *1852:B I *D sky130_fd_sc_hd__and4_2
*I *2191:A I *D sky130_fd_sc_hd__dlygate4sd3_1
*I *1850:A I *D sky130_fd_sc_hd__and4_2
*I *2287:A I *D sky130_fd_sc_hd__clkdlybuf4s25_1
*I *2019:Q O *D sky130_fd_sc_hd__dfxtp_2
*CAP
1 *1852:B 0
2 *2191:A 0.000207481
3 *1850:A 0
4 *2287:A 7.00014e-05
5 *2019:Q 0
6 *663:57 0.000393737
7 *663:35 0.000372782
8 *663:25 0.000757581
9 *663:8 0.000280753
10 *663:4 0.000427172
11 *2191:A *666:34 9.7231e-05
12 *663:8 *678:86 5.56356e-05
13 *663:25 *666:34 4.57645e-05
14 *663:35 *666:34 6.87206e-06
15 *663:57 *2291:A 0
16 *663:57 *665:12 6.48263e-05
17 *663:57 *678:86 0.000144494
18 *1849:A1 *2191:A 0.000100061
19 *1849:B1 *2191:A 0.000277896
20 *2020:CLK *663:57 9.41704e-05
21 *254:14 *663:57 9.41704e-05
22 *478:22 *2191:A 0.000102773
23 *480:10 *2191:A 0.000454153
24 *659:61 *663:35 0.000347502
25 *662:14 *663:35 0
26 *662:60 *663:57 0.000471526
*RES
1 *2019:Q *663:4 23 
2 *663:4 *663:8 15.6214 
3 *663:8 *2287:A 39.4707 
4 *663:8 *663:25 17.8793 
5 *663:25 *663:35 37.1464 
6 *663:35 *1850:A 23 
7 *663:25 *2191:A 31.2443 
8 *663:4 *663:57 39.1557 
9 *663:57 *1852:B 23 
*END

*D_NET *664 0.00371549
*CONN
*I *2288:A I *D sky130_fd_sc_hd__clkdlybuf4s25_1
*I *2122:Q O *D sky130_fd_sc_hd__dfstp_2
*CAP
1 *2288:A 0
2 *2122:Q 0.000358041
3 *664:8 0.000358041
4 *664:8 *670:115 3.74963e-05
5 *1923:A1 *664:8 0.000291016
6 *2122:SET_B *664:8 0.000319992
7 *2246:A *664:8 5.56279e-05
8 *1:8 *664:8 0.000500144
9 *526:14 *664:8 0.000297215
10 *527:30 *664:8 0.000123426
11 *529:10 *664:8 5.58003e-05
12 *647:38 *664:8 0.000144713
13 *660:44 *664:8 0.00117397
*RES
1 *2122:Q *664:8 42.2229 
2 *664:8 *2288:A 23 
*END

*D_NET *665 0.00186035
*CONN
*I *1852:A I *D sky130_fd_sc_hd__and4_2
*I *2172:A I *D sky130_fd_sc_hd__dlygate4sd3_1
*I *2289:A I *D sky130_fd_sc_hd__clkdlybuf4s25_1
*I *2020:Q O *D sky130_fd_sc_hd__dfxtp_2
*CAP
1 *1852:A 9.93642e-05
2 *2172:A 0
3 *2289:A 5.7221e-05
4 *2020:Q 0.000589092
5 *665:12 0.000166695
6 *665:6 0.000797931
7 *665:12 *2291:A 0
8 *2020:CLK *1852:A 5.11621e-05
9 *2020:CLK *665:6 6.17437e-06
10 *254:14 *665:6 2.78825e-05
11 *663:57 *665:12 6.48263e-05
*RES
1 *2020:Q *665:6 30.2914 
2 *665:6 *665:12 31.9057 
3 *665:12 *2289:A 24.1186 
4 *665:12 *2172:A 23 
5 *665:6 *1852:A 24.595 
*END

*D_NET *666 0.0117865
*CONN
*I *1859:B I *D sky130_fd_sc_hd__and3_2
*I *2240:A I *D sky130_fd_sc_hd__dlygate4sd3_1
*I *1858:A1 I *D sky130_fd_sc_hd__a21oi_2
*I *1856:A1 I *D sky130_fd_sc_hd__a21oi_2
*I *1865:D I *D sky130_fd_sc_hd__and4_2
*I *1861:C I *D sky130_fd_sc_hd__and4_2
*I *2290:A I *D sky130_fd_sc_hd__clkdlybuf4s25_1
*I *2021:Q O *D sky130_fd_sc_hd__dfxtp_2
*CAP
1 *1859:B 0
2 *2240:A 0.000135094
3 *1858:A1 7.83003e-05
4 *1856:A1 4.01155e-05
5 *1865:D 0.000569568
6 *1861:C 0.00010092
7 *2290:A 0
8 *2021:Q 0.000134577
9 *666:41 0.000878436
10 *666:34 0.00071821
11 *666:22 0.00150916
12 *666:16 0.00104404
13 *666:10 0.000851793
14 *666:8 0.000487668
15 *666:6 0.000134577
16 *1861:C *667:18 0.000494759
17 *1865:D *1865:C 5.3304e-05
18 *1865:D *668:44 0.000192087
19 *1865:D *679:64 3.84515e-05
20 *1865:D *679:79 1.12487e-05
21 *1865:D *697:24 0.000166522
22 *2240:A *675:24 7.54669e-05
23 *666:10 *675:24 6.32688e-05
24 *666:10 *679:48 0.00017779
25 *666:16 *679:23 2.24973e-05
26 *666:16 *705:22 4.17736e-05
27 *666:16 *705:30 0.000152127
28 *1710:A2 *666:16 0.000184405
29 *1710:B1_N *666:16 4.96717e-05
30 *1711:B1_N *1858:A1 5.3304e-05
31 *1713:A2 *666:10 0.000175612
32 *1849:A3 *666:34 2.64616e-05
33 *1852:D *666:22 5.10805e-05
34 *1853:A *1858:A1 4.05745e-05
35 *2020:CLK *666:22 0.000249258
36 *2021:CLK *1865:D 0.000135037
37 *2022:CLK *1865:D 0.000156658
38 *2023:D *1865:D 4.05745e-05
39 *2191:A *666:34 9.7231e-05
40 *90:10 *666:34 5.79559e-05
41 *216:10 *2240:A 0.000110913
42 *254:14 *666:16 9.32038e-05
43 *254:14 *666:22 7.44161e-06
44 *297:8 *666:10 0.000101514
45 *299:8 *666:16 0
46 *402:6 *1858:A1 4.67488e-05
47 *402:10 *666:10 6.11099e-05
48 *402:10 *666:16 2.2539e-05
49 *404:22 *666:10 0
50 *480:10 *666:34 5.58003e-05
51 *482:8 *1865:D 0
52 *482:34 *1865:D 2.10281e-05
53 *483:18 *1858:A1 8.48502e-06
54 *483:39 *1861:C 0.000537949
55 *486:6 *1858:A1 6.17437e-06
56 *487:8 *666:6 0.000182826
57 *492:26 *1865:D 7.0399e-05
58 *492:43 *2240:A 7.77607e-05
59 *492:43 *666:10 5.76076e-05
60 *536:8 *666:41 0
61 *536:10 *666:34 0
62 *536:10 *666:41 0
63 *559:37 *2240:A 1.14452e-05
64 *659:14 *666:22 6.7063e-05
65 *659:61 *666:34 3.24141e-05
66 *662:60 *666:34 0.000506302
67 *662:60 *666:41 0.000122919
68 *662:73 *1865:D 2.76611e-06
69 *662:73 *666:41 3.98859e-05
70 *663:25 *666:34 4.57645e-05
71 *663:35 *666:34 6.87206e-06
*RES
1 *2021:Q *666:6 25.0507 
2 *666:6 *666:8 15 
3 *666:8 *666:10 7.89214 
4 *666:10 *666:16 23.7 
5 *666:16 *666:22 24.2179 
6 *666:22 *666:34 29.6657 
7 *666:34 *2290:A 23 
8 *666:22 *666:41 3.66643 
9 *666:41 *1861:C 43.8621 
10 *666:41 *1865:D 49.2893 
11 *666:16 *1856:A1 23.8493 
12 *666:10 *1858:A1 39.5743 
13 *666:8 *2240:A 41.6664 
14 *666:6 *1859:B 23 
*END

*D_NET *667 0.00771139
*CONN
*I *1859:A I *D sky130_fd_sc_hd__and3_2
*I *1865:C I *D sky130_fd_sc_hd__and4_2
*I *2217:A I *D sky130_fd_sc_hd__dlygate4sd3_1
*I *1861:B I *D sky130_fd_sc_hd__and4_2
*I *2291:A I *D sky130_fd_sc_hd__clkdlybuf4s25_1
*I *2022:Q O *D sky130_fd_sc_hd__dfxtp_2
*CAP
1 *1859:A 0.00016754
2 *1865:C 0.000428523
3 *2217:A 0
4 *1861:B 0
5 *2291:A 0.000424174
6 *2022:Q 0
7 *667:55 0.0010482
8 *667:18 0.000759636
9 *667:12 0.000477398
10 *667:4 0.000594075
11 *667:12 *677:50 7.56417e-05
12 *667:18 *668:24 5.73288e-05
13 *1859:C *1859:A 0.000182832
14 *1861:C *667:18 0.000494759
15 *1863:A2 *667:55 7.79942e-05
16 *1865:D *1865:C 5.3304e-05
17 *2021:CLK *1865:C 0.00015033
18 *2021:D *1865:C 1.74843e-05
19 *2023:D *1865:C 0.000334759
20 *115:12 *2291:A 2.26497e-05
21 *115:12 *667:18 1.05441e-05
22 *116:10 *2291:A 0
23 *116:10 *667:18 0
24 *117:8 *2291:A 3.22051e-05
25 *447:26 *667:55 3.81476e-05
26 *482:12 *667:12 0.000137651
27 *482:12 *667:55 0.000129522
28 *483:39 *667:18 0.000282124
29 *485:10 *667:55 0
30 *486:6 *667:18 0.000701855
31 *487:8 *1859:A 9.13962e-05
32 *487:20 *667:55 0.0003731
33 *491:8 *1865:C 4.2062e-05
34 *492:26 *667:12 0.000137651
35 *492:26 *667:55 0.00014196
36 *535:106 *667:55 0.000148422
37 *536:8 *667:12 7.8128e-05
38 *663:57 *2291:A 0
39 *665:12 *2291:A 0
*RES
1 *2022:Q *667:4 23 
2 *667:4 *667:12 33.8321 
3 *667:12 *667:18 27.3043 
4 *667:18 *2291:A 45.4157 
5 *667:18 *1861:B 38 
6 *667:12 *2217:A 23 
7 *667:4 *667:55 39.5079 
8 *667:55 *1865:C 32.3836 
9 *667:55 *1859:A 26.48 
*END

*D_NET *668 0.00528936
*CONN
*I *2292:A I *D sky130_fd_sc_hd__clkdlybuf4s25_1
*I *1865:B I *D sky130_fd_sc_hd__and4_2
*I *2177:A I *D sky130_fd_sc_hd__dlygate4sd3_1
*I *1861:A I *D sky130_fd_sc_hd__and4_2
*I *2023:Q O *D sky130_fd_sc_hd__dfxtp_2
*CAP
1 *2292:A 0.000335538
2 *1865:B 0
3 *2177:A 2.30556e-05
4 *1861:A 0
5 *2023:Q 6.64104e-05
6 *668:44 0.000531251
7 *668:31 0.000286442
8 *668:24 0.000406196
9 *668:12 0.000570269
10 *668:8 0.00016281
11 *2292:A *679:79 0.000110913
12 *2292:A *679:89 0.000378185
13 *2292:A *697:14 2.48343e-05
14 *2292:A *697:24 7.09173e-05
15 *668:8 *697:24 1.19796e-05
16 *668:12 *697:24 9.77405e-05
17 *668:24 *677:60 2.39018e-05
18 *668:24 *697:24 2.72789e-05
19 *668:31 *677:50 3.22051e-05
20 *668:31 *677:60 5.40971e-05
21 *668:31 *697:24 0.000227884
22 *668:44 *677:50 8.97164e-05
23 *668:44 *679:64 0.000180224
24 *668:44 *679:79 0.000218962
25 *668:44 *697:24 0.000288213
26 *1862:B *668:12 0.000229171
27 *1862:B *668:31 4.08664e-05
28 *1864:B *668:8 5.80963e-05
29 *1865:D *668:44 0.000192087
30 *1880:A *2292:A 2.26441e-05
31 *116:10 *668:24 0
32 *258:12 *668:8 0
33 *258:12 *668:24 0.000191419
34 *482:34 *2292:A 0.000204431
35 *486:12 *668:24 0
36 *488:10 *668:24 0
37 *494:20 *2292:A 1.84917e-05
38 *495:26 *2292:A 5.58003e-05
39 *667:18 *668:24 5.73288e-05
*RES
1 *2023:Q *668:8 39.5536 
2 *668:8 *668:12 17.5271 
3 *668:12 *668:24 37.1671 
4 *668:24 *1861:A 23 
5 *668:12 *668:31 2.52714 
6 *668:31 *2177:A 23.4971 
7 *668:31 *668:44 21.9186 
8 *668:44 *1865:B 38 
9 *668:44 *2292:A 46.5136 
*END

*D_NET *669 0.00166333
*CONN
*I *2236:A I *D sky130_fd_sc_hd__dlygate4sd3_1
*I *2293:A I *D sky130_fd_sc_hd__clkdlybuf4s25_1
*I *1865:A I *D sky130_fd_sc_hd__and4_2
*I *2024:Q O *D sky130_fd_sc_hd__dfxtp_2
*CAP
1 *2236:A 0
2 *2293:A 0.000224465
3 *1865:A 0.000179638
4 *2024:Q 0.000190677
5 *669:23 0.000224465
6 *669:10 0.000370315
7 *2021:CLK *1865:A 2.64616e-05
8 *2023:D *1865:A 9.41704e-05
9 *258:12 *1865:A 0
10 *258:12 *669:10 0
11 *543:10 *669:10 2.92911e-06
12 *543:16 *669:10 3.82058e-06
13 *543:66 *1865:A 0.000189309
14 *543:66 *669:10 0.000137594
15 *640:10 *2293:A 1.94812e-05
*RES
1 *2024:Q *669:10 41.0036 
2 *669:10 *1865:A 41.7079 
3 *669:10 *669:23 15 
4 *669:23 *2293:A 27.1221 
5 *669:23 *2236:A 23 
*END

*D_NET *670 0.0149642
*CONN
*I *1917:A3 I *D sky130_fd_sc_hd__a31o_2
*I *1919:A3 I *D sky130_fd_sc_hd__a31o_2
*I *1916:A2 I *D sky130_fd_sc_hd__a21oi_2
*I *1923:A2 I *D sky130_fd_sc_hd__a31o_2
*I *1927:A1 I *D sky130_fd_sc_hd__a31o_2
*I *1925:A2 I *D sky130_fd_sc_hd__a31o_2
*I *1921:A I *D sky130_fd_sc_hd__nand2_2
*I *1915:A2 I *D sky130_fd_sc_hd__o21a_2
*I *1912:B I *D sky130_fd_sc_hd__nor2_2
*I *1914:A2 I *D sky130_fd_sc_hd__a21oi_2
*I *2154:X O *D sky130_fd_sc_hd__clkdlybuf4s25_1
*CAP
1 *1917:A3 2.0183e-05
2 *1919:A3 0
3 *1916:A2 0
4 *1923:A2 0
5 *1927:A1 0
6 *1925:A2 0
7 *1921:A 1.78013e-05
8 *1915:A2 0
9 *1912:B 0
10 *1914:A2 4.71425e-05
11 *2154:X 0.000426188
12 *670:125 0.00019974
13 *670:115 0.000426796
14 *670:100 0.000671066
15 *670:87 0.000726789
16 *670:80 0.000504105
17 *670:70 0.00125054
18 *670:62 0.000587737
19 *670:51 0.000345266
20 *670:42 0.000282126
21 *670:36 0.00105094
22 *670:29 0.000558017
23 *670:23 0.0012198
24 *670:14 0.000407478
25 *670:10 0.000669997
26 *670:70 *685:72 0
27 *670:70 *688:87 0
28 *670:80 *687:63 0.000853288
29 *670:80 *687:70 5.58873e-06
30 *670:125 *688:95 2.79396e-05
31 *1908:A1 *670:10 5.84798e-05
32 *1908:A2 *670:10 6.22448e-06
33 *1911:B *670:29 0.000103814
34 *1915:B1 *670:42 0.000264961
35 *1916:A1 *670:125 0
36 *1917:A1 *1917:A3 5.56356e-05
37 *1917:A1 *670:51 8.7283e-06
38 *1917:A1 *670:62 0.00011665
39 *1923:A1 *670:87 0
40 *1923:A1 *670:100 1.41129e-05
41 *1923:A1 *670:115 7.52205e-05
42 *1930:A1 *670:87 0
43 *1931:C *670:80 0.000504187
44 *2206:A *670:29 7.02559e-05
45 *2250:A *670:70 0
46 *2275:A *670:10 0.0002778
47 *2277:A *670:125 0
48 *2279:A *670:29 3.71624e-05
49 *122:12 *670:29 2.26406e-05
50 *158:8 *670:70 0.000197479
51 *272:12 *670:29 0
52 *276:8 *670:29 0.000323803
53 *278:18 *670:125 1.35714e-05
54 *521:8 *670:29 0
55 *521:31 *670:29 0
56 *523:8 *670:36 0.000519462
57 *524:8 *670:125 4.04146e-05
58 *525:12 *670:70 2.26406e-05
59 *526:14 *670:115 6.4695e-05
60 *527:30 *670:100 0.000492272
61 *527:70 *670:87 1.13812e-05
62 *527:70 *670:100 8.57485e-05
63 *527:83 *670:70 0
64 *528:18 *670:36 7.06812e-05
65 *528:18 *670:51 0.000203083
66 *531:12 *670:125 1.05441e-05
67 *547:8 *670:29 7.03766e-05
68 *547:19 *670:29 0.000108962
69 *547:30 *670:29 2.24151e-05
70 *547:45 *670:14 8.60323e-05
71 *547:45 *670:23 1.14762e-05
72 *549:55 *670:70 0
73 *591:8 *670:29 1.83564e-05
74 *602:21 *670:29 3.56537e-05
75 *602:35 *670:10 0
76 *606:10 *670:29 0
77 *625:20 *1914:A2 5.90675e-06
78 *625:20 *670:23 2.93747e-05
79 *625:20 *670:36 4.05745e-05
80 *625:24 *670:23 1.41077e-05
81 *625:58 *670:125 2.26497e-05
82 *625:90 *670:70 2.2324e-05
83 *636:10 *670:42 0.000141386
84 *636:20 *1921:A 0
85 *636:60 *670:125 3.62566e-05
86 *648:8 *670:42 8.26266e-05
87 *651:18 *670:80 8.94569e-05
88 *658:40 *670:87 0
89 *661:27 *670:125 6.54264e-05
90 *661:42 *670:87 5.32093e-05
91 *664:8 *670:115 3.74963e-05
*RES
1 *2154:X *670:10 45.0221 
2 *670:10 *670:14 18.48 
3 *670:14 *1914:A2 23.8493 
4 *670:14 *670:23 1.57429 
5 *670:23 *670:29 43.5264 
6 *670:29 *1912:B 23 
7 *670:23 *670:36 7.76786 
8 *670:36 *670:42 37.1879 
9 *670:42 *1915:A2 23 
10 *670:36 *670:51 3.85286 
11 *670:51 *1921:A 23.4971 
12 *670:51 *670:62 3.02429 
13 *670:62 *670:70 23.1304 
14 *670:70 *670:80 33.0085 
15 *670:80 *1925:A2 23 
16 *670:70 *670:87 4.89893 
17 *670:87 *1927:A1 38 
18 *670:87 *670:100 22.0636 
19 *670:100 *1923:A2 23 
20 *670:100 *670:115 4.64 
21 *670:115 *670:125 33.7389 
22 *670:125 *1916:A2 23 
23 *670:115 *1919:A3 23 
24 *670:62 *1917:A3 23.6214 
*END

*D_NET *671 0.00318234
*CONN
*I *1893:A3 I *D sky130_fd_sc_hd__a31o_2
*I *1896:D I *D sky130_fd_sc_hd__and4_2
*I *2263:X O *D sky130_fd_sc_hd__clkdlybuf4s25_1
*CAP
1 *1893:A3 0.000249184
2 *1896:D 0.000490618
3 *2263:X 4.50565e-05
4 *671:8 0.000784858
5 *1893:A3 *1890:B 0.000148422
6 *1893:A3 *1892:A 0.000132674
7 *1893:A3 *682:21 0.000320661
8 *1893:A3 *682:34 1.14452e-05
9 *1896:D *682:8 1.49641e-05
10 *671:8 *1890:B 4.08537e-05
11 *671:8 *1892:A 8.62783e-05
12 *1893:A1 *1893:A3 5.50106e-05
13 *1893:A2 *1893:A3 4.16661e-05
14 *2032:CLK *1896:D 0.000114658
15 *2032:D *1896:D 1.64354e-05
16 *510:6 *1893:A3 0.00014196
17 *561:37 *1896:D 0.000183835
18 *561:49 *1896:D 3.22879e-05
19 *562:31 *1896:D 0
20 *563:41 *1896:D 0.000271476
*RES
1 *2263:X *671:8 39.2014 
2 *671:8 *1896:D 48.8543 
3 *671:8 *1893:A3 45.7057 
*END

*D_NET *672 0.00276636
*CONN
*I *1890:B I *D sky130_fd_sc_hd__nor2_2
*I *2263:A I *D sky130_fd_sc_hd__clkdlybuf4s25_1
*I *2264:X O *D sky130_fd_sc_hd__buf_1
*CAP
1 *1890:B 0.000190563
2 *2263:A 0.000106408
3 *2264:X 0.000335881
4 *672:10 0.000632852
5 *1890:B *1892:A 1.17152e-05
6 *2263:A *688:41 0.000182826
7 *672:10 *1892:A 4.6318e-06
8 *1608:A *672:10 8.62783e-05
9 *1888:B *672:10 0.000143873
10 *1893:A2 *1890:B 5.24393e-05
11 *1893:A3 *1890:B 0.000148422
12 *560:19 *672:10 0.000272321
13 *560:34 *672:10 8.4047e-05
14 *560:44 *672:10 0
15 *561:16 *1890:B 0.000138727
16 *561:16 *672:10 9.38233e-05
17 *561:61 *1890:B 0.000240695
18 *671:8 *1890:B 4.08537e-05
*RES
1 *2264:X *672:10 46.5136 
2 *672:10 *2263:A 40.5271 
3 *672:10 *1890:B 43.7793 
*END

*D_NET *673 0.00560485
*CONN
*I *1690:D I *D sky130_fd_sc_hd__and4_2
*I *1704:B I *D sky130_fd_sc_hd__or2_2
*I *1689:B I *D sky130_fd_sc_hd__nand2_2
*I *1702:A2 I *D sky130_fd_sc_hd__a21oi_2
*I *2265:X O *D sky130_fd_sc_hd__clkbuf_2
*CAP
1 *1690:D 0
2 *1704:B 0
3 *1689:B 0
4 *1702:A2 0.000300257
5 *2265:X 0.000371446
6 *673:51 0.00061006
7 *673:34 0.00100396
8 *673:21 0.000501016
9 *673:10 0.000778821
10 *673:10 *2002:A 2.46922e-05
11 *673:10 *700:84 0.000197421
12 *673:10 *753:66 0
13 *673:21 *700:84 0.000195248
14 *673:21 *753:56 4.3407e-05
15 *673:21 *753:66 0
16 *673:34 *756:91 5.5792e-05
17 *673:51 *1690:B 0.000202663
18 *673:51 *1690:C 0.000182561
19 *673:51 *756:6 0.0001396
20 *673:51 *756:74 0.000160172
21 *1705:A *1702:A2 5.68958e-05
22 *1705:B *1702:A2 6.82416e-05
23 *1705:C *1702:A2 5.41385e-05
24 *2067:CLK *673:21 8.00093e-06
25 *2067:CLK *673:34 5.54823e-05
26 *240:10 *673:10 0.000163352
27 *300:10 *1702:A2 5.50106e-05
28 *300:10 *673:51 0
29 *301:10 *673:34 5.79559e-05
30 *301:10 *673:51 0.000102389
31 *369:10 *673:10 0
32 *370:10 *673:10 0
33 *399:10 *673:51 0.000100029
34 *540:44 *673:10 5.36457e-05
35 *540:79 *673:10 6.25948e-05
*RES
1 *2265:X *673:10 46.5136 
2 *673:10 *1702:A2 43.8621 
3 *673:10 *673:21 2.96214 
4 *673:21 *1689:B 38 
5 *673:21 *673:34 22.5193 
6 *673:34 *1704:B 23 
7 *673:34 *673:51 44.7071 
8 *673:51 *1690:D 23 
*END

*D_NET *674 0.00448328
*CONN
*I *1657:D I *D sky130_fd_sc_hd__nand4_2
*I *1680:A I *D sky130_fd_sc_hd__nand2_2
*I *1682:A2 I *D sky130_fd_sc_hd__a21oi_2
*I *2265:A I *D sky130_fd_sc_hd__clkbuf_2
*I *2393:X O *D sky130_fd_sc_hd__clkbuf_2
*CAP
1 *1657:D 0
2 *1680:A 0
3 *1682:A2 0
4 *2265:A 0
5 *2393:X 0.000135792
6 *674:58 0.000426115
7 *674:44 0.00066383
8 *674:36 0.000417447
9 *674:25 0.000290779
10 *674:18 0.000150249
11 *674:12 0.000410656
12 *674:8 0.000285151
13 *674:8 *755:19 0
14 *674:18 *696:61 0
15 *674:44 *696:61 0
16 *674:44 *696:112 0.000358576
17 *674:44 *757:39 0.000345053
18 *674:44 *757:51 5.56356e-05
19 *674:44 *771:20 2.02872e-05
20 *674:58 *696:112 0.000278228
21 *674:58 *771:44 2.8183e-05
22 *1657:C *674:36 0
23 *1680:B *674:58 2.93104e-06
24 *1681:A2 *674:44 2.72882e-05
25 *1682:A1 *674:36 0.000306216
26 *1682:B1 *674:36 0.000144494
27 *309:16 *674:58 0
28 *365:10 *674:8 0
29 *368:39 *674:58 2.56111e-05
30 *372:14 *674:44 5.59881e-05
31 *385:10 *674:58 8.06804e-06
32 *386:10 *674:36 3.22465e-05
33 *540:40 *674:18 0
34 *540:44 *674:18 1.44546e-05
*RES
1 *2393:X *674:8 40.2579 
2 *674:8 *674:12 17.5271 
3 *674:12 *674:18 32.9621 
4 *674:18 *2265:A 23 
5 *674:12 *674:25 2.05071 
6 *674:25 *1682:A2 23 
7 *674:25 *674:36 5.075 
8 *674:36 *674:44 37.0429 
9 *674:44 *674:58 37.2293 
10 *674:58 *1680:A 23 
11 *674:36 *1657:D 23 
*END

*D_NET *675 0.00841807
*CONN
*I *2294:A I *D sky130_fd_sc_hd__clkdlybuf4s25_1
*I *1881:A I *D sky130_fd_sc_hd__or2_2
*I *1772:Y O *D sky130_fd_sc_hd__inv_2
*CAP
1 *2294:A 0
2 *1881:A 0
3 *1772:Y 0.000515716
4 *675:33 0.000894413
5 *675:24 0.000812974
6 *675:16 0.00170739
7 *675:14 0.000515716
8 *675:14 *677:31 0
9 *675:14 *679:48 9.32475e-06
10 *675:24 *1873:B 0.000664477
11 *675:24 *679:48 0.000110826
12 *675:24 *697:39 2.11066e-05
13 *675:33 *677:27 0
14 *675:33 *679:10 0.000398347
15 *675:33 *679:23 0.000401681
16 *675:33 *679:48 0.000498302
17 *1772:A *675:14 2.64616e-05
18 *1887:C1 *675:24 5.48125e-05
19 *2240:A *675:24 7.54669e-05
20 *216:10 *675:24 0.000111852
21 *254:14 *675:33 0.000108673
22 *325:10 *675:24 9.42865e-05
23 *413:41 *675:24 0
24 *413:41 *675:33 0
25 *454:8 *675:33 0
26 *479:8 *675:33 8.76351e-05
27 *482:27 *675:33 0.000159648
28 *483:61 *675:14 2.24608e-05
29 *492:43 *675:14 7.57281e-06
30 *492:43 *675:24 0
31 *496:18 *675:24 1.94693e-05
32 *501:20 *675:24 0.000512812
33 *502:21 *675:24 4.39592e-05
34 *504:19 *675:24 1.51707e-05
35 *536:86 *675:14 1.21972e-05
36 *559:37 *675:24 0.000194318
37 *568:16 *675:33 0.000257733
38 *666:10 *675:24 6.32688e-05
*RES
1 *1772:Y *675:14 48.6383 
2 *675:14 *675:16 8 
3 *675:16 *675:24 37.3404 
4 *675:24 *1881:A 23 
5 *675:16 *675:33 36.8018 
6 *675:33 *2294:A 23 
*END

*D_NET *676 0.00426287
*CONN
*I *1809:A I *D sky130_fd_sc_hd__nor3_2
*I *1816:A I *D sky130_fd_sc_hd__nor3_2
*I *2266:X O *D sky130_fd_sc_hd__clkbuf_2
*CAP
1 *1809:A 0
2 *1816:A 0.000350302
3 *2266:X 0.000195187
4 *676:27 0.000706103
5 *676:10 0.00125159
6 *676:10 *1825:B 0
7 *676:10 *685:41 0
8 *676:10 *744:38 3.7122e-06
9 *676:27 *751:8 6.51997e-06
10 *676:27 *751:14 5.90853e-05
11 *676:27 *752:16 0
12 *676:27 *753:32 0
13 *1809:C *676:27 0.000226902
14 *1811:B *676:27 3.46013e-05
15 *1816:C *1816:A 7.88926e-05
16 *365:20 *1816:A 0.000258097
17 *365:30 *676:10 3.92407e-05
18 *365:30 *676:27 0.000623823
19 *366:10 *676:10 0
20 *366:23 *676:10 0
21 *366:23 *676:27 0
22 *366:38 *676:27 0.000194318
23 *367:10 *676:10 4.59027e-05
24 *459:10 *676:27 0.000111106
25 *460:8 *676:27 7.74854e-05
*RES
1 *2266:X *676:10 41.5836 
2 *676:10 *1816:A 45.3121 
3 *676:10 *676:27 31.53 
4 *676:27 *1809:A 23 
*END

*D_NET *677 0.00841108
*CONN
*I *1952:A I *D sky130_fd_sc_hd__inv_2
*I *1862:A I *D sky130_fd_sc_hd__nor2_2
*I *1860:A I *D sky130_fd_sc_hd__nor3_2
*I *1856:B1 I *D sky130_fd_sc_hd__a21oi_2
*I *2254:A I *D sky130_fd_sc_hd__buf_4
*I *2155:X O *D sky130_fd_sc_hd__clkdlybuf4s25_1
*CAP
1 *1952:A 0.000234979
2 *1862:A 0
3 *1860:A 0
4 *1856:B1 0.000150006
5 *2254:A 3.24351e-05
6 *2155:X 0.000199247
7 *677:60 0.000185249
8 *677:50 0.00106511
9 *677:31 0.00202917
10 *677:27 0.00155401
11 *677:10 0.000551414
12 *1952:A *705:12 2.11066e-05
13 *1952:A *738:39 6.10551e-06
14 *2254:A *678:12 2.95526e-05
15 *677:10 *738:10 0.000168965
16 *677:10 *738:29 6.5117e-06
17 *677:27 *705:16 0
18 *677:27 *738:29 6.36158e-05
19 *677:50 *679:64 0.000104362
20 *677:60 *679:64 3.22879e-05
21 *1856:A2 *1856:B1 0
22 *1866:C *677:50 8.4047e-05
23 *254:14 *677:10 0.000195316
24 *254:14 *677:27 0.000259539
25 *258:12 *677:60 0.000141975
26 *454:8 *677:27 7.14436e-05
27 *484:6 *677:10 2.64616e-05
28 *484:12 *677:10 6.2088e-05
29 *485:10 *1856:B1 0.000124439
30 *485:10 *677:50 0.000377326
31 *489:12 *677:31 0
32 *489:12 *677:60 5.24877e-05
33 *536:8 *1856:B1 0
34 *536:8 *677:50 0
35 *536:86 *677:50 2.62931e-05
36 *574:8 *677:50 0.000268011
37 *659:14 *1856:B1 1.19692e-05
38 *667:12 *677:50 7.56417e-05
39 *668:24 *677:60 2.39018e-05
40 *668:31 *677:50 3.22051e-05
41 *668:31 *677:60 5.40971e-05
42 *668:44 *677:50 8.97164e-05
43 *675:14 *677:31 0
44 *675:33 *677:27 0
*RES
1 *2155:X *677:10 43.1371 
2 *677:10 *2254:A 38.6214 
3 *677:10 *677:27 13.1808 
4 *677:27 *677:31 9.90213 
5 *677:31 *1856:B1 40.7861 
6 *677:31 *677:50 31.3954 
7 *677:50 *677:60 34.3293 
8 *677:60 *1860:A 23 
9 *677:50 *1862:A 23 
10 *677:27 *1952:A 46.8493 
*END

*D_NET *678 0.0101796
*CONN
*I *1851:A I *D sky130_fd_sc_hd__nor3_2
*I *1854:A I *D sky130_fd_sc_hd__nor2_2
*I *1953:A I *D sky130_fd_sc_hd__inv_2
*I *1946:A I *D sky130_fd_sc_hd__inv_2
*I *1847:B1 I *D sky130_fd_sc_hd__a31o_2
*I *1844:B1 I *D sky130_fd_sc_hd__a21oi_2
*I *2254:X O *D sky130_fd_sc_hd__buf_4
*CAP
1 *1851:A 0
2 *1854:A 0
3 *1953:A 3.06567e-05
4 *1946:A 0.000214693
5 *1847:B1 1.66609e-05
6 *1844:B1 4.9103e-05
7 *2254:X 0.000887321
8 *678:86 0.000846318
9 *678:45 0.000855999
10 *678:28 0.00112157
11 *678:22 0.000567117
12 *678:20 0.000247836
13 *678:18 0.00110154
14 *678:16 0.00021266
15 *678:12 0.000942636
16 *678:12 *1706:A_N 1.84917e-05
17 *678:12 *739:10 0.000226907
18 *1846:A1 *1847:B1 9.08201e-05
19 *2019:D *678:86 4.41722e-06
20 *2064:CLK *678:86 5.45644e-05
21 *2065:CLK *678:12 7.95762e-05
22 *2065:D *678:12 9.51286e-05
23 *2254:A *678:12 2.95526e-05
24 *116:10 *678:86 5.79559e-05
25 *191:8 *678:18 5.93605e-05
26 *191:8 *678:20 3.88629e-05
27 *251:10 *678:28 0
28 *477:18 *1844:B1 2.46922e-05
29 *477:18 *678:28 4.65439e-06
30 *478:22 *1953:A 2.95526e-05
31 *479:8 *678:45 0
32 *481:22 *1946:A 0.000403245
33 *484:6 *678:86 0.000258424
34 *536:10 *678:16 1.97671e-05
35 *536:12 *678:16 6.5117e-06
36 *536:12 *678:18 5.83478e-05
37 *536:20 *678:18 1.41891e-05
38 *536:20 *678:20 4.06418e-05
39 *536:20 *678:22 3.56796e-05
40 *568:10 *678:12 9.27692e-05
41 *627:10 *1847:B1 9.84851e-05
42 *627:10 *678:45 0.00104281
43 *659:14 *678:16 0
44 *659:32 *1844:B1 0
45 *659:32 *678:28 0
46 *663:8 *678:86 5.56356e-05
47 *663:57 *678:86 0.000144494
*RES
1 *2254:X *678:12 37.1479 
2 *678:12 *678:16 16.2014 
3 *678:16 *678:18 3.66643 
4 *678:18 *678:20 2.25786 
5 *678:20 *678:22 2.25786 
6 *678:22 *678:28 3.37643 
7 *678:28 *1844:B1 38.8493 
8 *678:28 *678:45 42.7807 
9 *678:45 *1847:B1 39.0979 
10 *678:22 *1946:A 43.075 
11 *678:20 *1953:A 38.6214 
12 *678:18 *678:86 29.9764 
13 *678:86 *1854:A 23 
14 *678:16 *1851:A 38 
*END

*D_NET *679 0.0190967
*CONN
*I *1886:A I *D sky130_fd_sc_hd__nor2_2
*I *1888:A I *D sky130_fd_sc_hd__nor2_2
*I *1878:A I *D sky130_fd_sc_hd__nor3_2
*I *1872:A I *D sky130_fd_sc_hd__nor3_2
*I *1867:A I *D sky130_fd_sc_hd__nor3_2
*I *1954:A I *D sky130_fd_sc_hd__inv_2
*I *2155:A I *D sky130_fd_sc_hd__clkdlybuf4s25_1
*I *2156:X O *D sky130_fd_sc_hd__clkdlybuf4s25_1
*CAP
1 *1886:A 0
2 *1888:A 0.000598617
3 *1878:A 0
4 *1872:A 0.000172166
5 *1867:A 0
6 *1954:A 0
7 *2155:A 7.75877e-05
8 *2156:X 0.000448974
9 *679:129 0.000943688
10 *679:112 0.00100119
11 *679:89 0.00106698
12 *679:79 0.000523769
13 *679:64 0.000590334
14 *679:48 0.00196651
15 *679:23 0.00127059
16 *679:10 0.000706041
17 *2155:A *738:10 0.000138859
18 *679:89 *697:14 0.000122178
19 *679:89 *697:24 0.00026339
20 *679:112 *686:27 0.000668517
21 *679:112 *697:14 0.000246579
22 *679:129 *702:10 0
23 *679:129 *702:12 0
24 pcRegister[12] *679:112 5.58873e-06
25 *1710:A2 *679:23 1.01436e-05
26 *1710:A2 *679:48 0.000149507
27 *1713:A2 *679:48 0.000185755
28 *1865:D *679:64 3.84515e-05
29 *1865:D *679:79 1.12487e-05
30 *1867:B *679:64 7.02407e-05
31 *1867:C *679:64 3.63375e-05
32 *1872:C *1872:A 2.48025e-05
33 *1876:B1 *1888:A 0.00014557
34 *1886:B *679:79 6.17437e-06
35 *1888:B *1888:A 5.54148e-05
36 *1891:A *1888:A 7.88926e-05
37 *2022:CLK *679:64 0.000184768
38 *2025:D *1888:A 7.42621e-05
39 *2063:D *679:48 2.64616e-05
40 *2193:A *1888:A 0.000139352
41 *2292:A *679:79 0.000110913
42 *2292:A *679:89 0.000378185
43 *120:10 *1872:A 0.000454438
44 *192:8 *679:23 0.000192761
45 *299:8 *679:23 0
46 *402:10 *679:48 8.3649e-05
47 *481:22 *679:10 0.000101743
48 *482:34 *679:79 0.000343054
49 *484:6 *2155:A 7.17698e-05
50 *486:12 *679:64 3.04661e-05
51 *487:20 *679:64 1.23293e-05
52 *489:12 *679:64 0
53 *492:26 *679:64 0.000370396
54 *492:87 *679:129 0
55 *494:20 *1872:A 1.91457e-05
56 *495:26 *1872:A 0.000367073
57 *495:26 *679:89 5.39488e-05
58 *495:43 *679:112 0
59 *496:41 *679:129 6.46205e-05
60 *497:10 *679:112 0
61 *498:10 *679:129 0.00037403
62 *509:10 *1888:A 3.22879e-05
63 *536:86 *679:48 0.000512377
64 *559:50 *679:112 0.000284544
65 *559:50 *679:129 2.18409e-05
66 *561:16 *1888:A 0.00044107
67 *574:8 *679:48 0.000315694
68 *574:8 *679:64 9.84851e-05
69 *577:10 *679:112 0.000158292
70 *637:10 *679:129 0
71 *666:10 *679:48 0.00017779
72 *666:16 *679:23 2.24973e-05
73 *668:44 *679:64 0.000180224
74 *668:44 *679:79 0.000218962
75 *675:14 *679:48 9.32475e-06
76 *675:24 *679:48 0.000110826
77 *675:33 *679:10 0.000398347
78 *675:33 *679:23 0.000401681
79 *675:33 *679:48 0.000498302
80 *677:50 *679:64 0.000104362
81 *677:60 *679:64 3.22879e-05
*RES
1 *2156:X *679:10 46.4307 
2 *679:10 *2155:A 40.0714 
3 *679:10 *679:23 5.42714 
4 *679:23 *1954:A 38 
5 *679:23 *679:48 38.6557 
6 *679:48 *679:64 44.3757 
7 *679:64 *1867:A 23 
8 *679:48 *679:79 36.67 
9 *679:79 *679:89 36.67 
10 *679:89 *1872:A 29.8357 
11 *679:89 *679:112 46.8614 
12 *679:112 *1878:A 23 
13 *679:112 *679:129 37.5193 
14 *679:129 *1888:A 37.935 
15 *679:79 *1886:A 23 
*END

*D_NET *680 0.00568583
*CONN
*I *2255:A I *D sky130_fd_sc_hd__buf_4
*I *2156:A I *D sky130_fd_sc_hd__clkdlybuf4s25_1
*I *1976:A I *D sky130_fd_sc_hd__inv_2
*I *1947:A I *D sky130_fd_sc_hd__inv_2
*I *2157:X O *D sky130_fd_sc_hd__clkdlybuf4s25_1
*CAP
1 *2255:A 0
2 *2156:A 0
3 *1976:A 0
4 *1947:A 6.37462e-05
5 *2157:X 0.000438897
6 *680:52 0.000336446
7 *680:36 0.00133409
8 *680:14 0.000220702
9 *680:10 0.00159349
10 *680:10 *731:12 1.90974e-05
11 *680:14 *731:12 2.50612e-05
12 *680:36 *731:12 4.82016e-05
13 *680:52 *2157:A 7.6774e-06
14 *1725:C *680:52 6.45006e-05
15 *1727:A1 *680:10 2.95526e-05
16 *1727:A2 *680:52 0.000271584
17 *2058:RESET_B *680:36 0.000441633
18 *2099:CLK *680:52 4.839e-05
19 *214:8 *680:14 0.000195488
20 *254:8 *680:36 4.29307e-05
21 *291:18 *680:36 2.03719e-05
22 *320:8 *680:52 0.000168678
23 *411:16 *680:10 3.6608e-05
24 *411:16 *680:14 5.34487e-05
25 *478:18 *680:36 0.000136546
26 *481:22 *680:36 7.64944e-05
27 *544:77 *680:36 1.21972e-05
*RES
1 *2157:X *680:10 39.8229 
2 *680:10 *680:14 19.0186 
3 *680:14 *1947:A 24.0979 
4 *680:14 *1976:A 23 
5 *680:10 *680:36 34.865 
6 *680:36 *2156:A 23 
7 *2157:X *680:52 44.2143 
8 *680:52 *2255:A 38 
*END

*D_NET *681 0.0140524
*CONN
*I *1974:A I *D sky130_fd_sc_hd__inv_2
*I *1975:A I *D sky130_fd_sc_hd__inv_2
*I *1978:A I *D sky130_fd_sc_hd__inv_2
*I *1973:A I *D sky130_fd_sc_hd__inv_2
*I *1933:A I *D sky130_fd_sc_hd__inv_2
*I *1977:A I *D sky130_fd_sc_hd__inv_2
*I *1950:A I *D sky130_fd_sc_hd__inv_2
*I *2255:X O *D sky130_fd_sc_hd__buf_4
*CAP
1 *1974:A 0.000173509
2 *1975:A 1.35172e-05
3 *1978:A 0
4 *1973:A 0
5 *1933:A 4.38359e-05
6 *1977:A 4.26123e-05
7 *1950:A 0.000210545
8 *2255:X 0.000470205
9 *681:94 0.00159554
10 *681:76 0.00160906
11 *681:69 0.000613161
12 *681:50 0.00118116
13 *681:36 0.00107092
14 *681:32 0.00133507
15 *681:19 0.000774393
16 *681:8 0.000797717
17 *1974:A *694:122 0
18 *1974:A *736:8 8.21456e-06
19 *1977:A *1758:A1 9.84794e-05
20 *681:8 *728:10 0
21 *681:8 *728:27 0
22 *681:19 *728:27 0
23 *681:32 *728:27 4.21594e-06
24 *681:32 *736:8 6.09443e-05
25 *681:50 *735:63 0
26 *681:50 *735:77 0.000135943
27 *681:69 *1616:A 0
28 *681:94 *735:8 1.13013e-05
29 *681:94 *735:52 0
30 *681:94 *737:52 0.000120979
31 *1628:C *681:69 9.42969e-05
32 *1775:A1 *681:50 7.82833e-06
33 *1775:A1 *681:69 1.12796e-05
34 *1857:A1 *681:94 5.3304e-05
35 *1857:A2 *681:94 9.41704e-05
36 *1886:B *681:94 4.79641e-05
37 *2086:CLK *681:94 7.51868e-05
38 *2086:RESET_B *681:94 7.27655e-05
39 *188:8 *681:8 0
40 *211:8 *681:69 0.000322901
41 *212:10 *1974:A 0.000108916
42 *212:10 *681:32 9.04568e-05
43 *213:10 *681:94 0
44 *215:8 *681:8 9.08091e-05
45 *216:10 *681:94 0.000144062
46 *218:8 *681:94 0.000188304
47 *264:10 *681:94 1.76557e-05
48 *294:10 *681:69 0
49 *325:10 *681:94 7.88926e-05
50 *333:18 *1933:A 0.000102389
51 *333:18 *681:69 1.3523e-05
52 *340:30 *681:69 0.000107338
53 *413:66 *681:36 0.000211872
54 *413:66 *681:50 1.1377e-05
55 *441:23 *681:32 0
56 *446:12 *681:36 2.51266e-05
57 *446:12 *681:50 2.37336e-05
58 *448:10 *1933:A 4.93812e-05
59 *449:12 *681:8 0
60 *449:12 *681:19 0
61 *449:12 *681:32 0
62 *449:48 *681:32 0
63 *471:12 *681:8 0.000488852
64 *535:33 *681:36 0.00037705
65 *535:33 *681:50 1.74874e-06
66 *544:23 *681:94 5.00013e-05
67 *550:10 *1974:A 0
68 *550:12 *681:32 0
69 *551:24 *681:69 0.000409468
70 *555:55 *1933:A 0.000100032
71 *555:55 *681:50 5.47983e-06
72 *555:55 *681:69 3.10188e-05
73 *555:80 *681:50 0
74 *555:80 *681:69 1.61385e-05
75 *555:80 *681:94 0
76 *579:8 *681:8 1.01436e-05
77 *579:8 *681:19 0.000131744
78 *581:10 *1950:A 1.59094e-05
79 *581:10 *681:8 0
*RES
1 *2255:X *681:8 49.4136 
2 *681:8 *1950:A 41.48 
3 *681:8 *681:19 2.61 
4 *681:19 *1977:A 39.0979 
5 *681:19 *681:32 12.3354 
6 *681:32 *681:36 9.8592 
7 *681:36 *681:50 28.1995 
8 *681:50 *1933:A 25.0507 
9 *681:50 *681:69 45.1007 
10 *681:69 *1973:A 23 
11 *681:36 *681:76 8 
12 *681:76 *681:94 42.8089 
13 *681:94 *1978:A 23 
14 *681:76 *1975:A 38.3211 
15 *681:32 *1974:A 41.4904 
*END

*D_NET *682 0.00747782
*CONN
*I *1994:A I *D sky130_fd_sc_hd__inv_2
*I *1906:B1 I *D sky130_fd_sc_hd__a21oi_2
*I *1897:A I *D sky130_fd_sc_hd__nor3_2
*I *2256:A I *D sky130_fd_sc_hd__buf_2
*I *1893:B1 I *D sky130_fd_sc_hd__a31o_2
*I *1892:A I *D sky130_fd_sc_hd__nor3_2
*I *2158:X O *D sky130_fd_sc_hd__clkdlybuf4s25_1
*CAP
1 *1994:A 0
2 *1906:B1 0
3 *1897:A 0
4 *2256:A 0.000219128
5 *1893:B1 0
6 *1892:A 0.000171626
7 *2158:X 0.000178233
8 *682:68 0.000693039
9 *682:44 0.000411502
10 *682:42 0.00147762
11 *682:34 0.000877998
12 *682:21 0.000471356
13 *682:8 0.000535426
14 *1892:A *688:41 5.50049e-05
15 *2256:A *683:10 1.24376e-05
16 *1890:B *1892:A 1.17152e-05
17 *1893:A3 *1892:A 0.000132674
18 *1893:A3 *682:21 0.000320661
19 *1893:A3 *682:34 1.14452e-05
20 *1896:D *682:8 1.49641e-05
21 *1906:A1 *682:68 2.64616e-05
22 *1906:A2 *682:68 0.000139352
23 *2032:CLK *682:8 6.88885e-05
24 *2034:CLK *682:42 1.24376e-05
25 *2034:D *682:42 4.9127e-05
26 *2195:A *682:34 0
27 *266:10 *1892:A 0.000108681
28 *267:8 *682:21 0
29 *268:10 *2256:A 6.48142e-05
30 *268:10 *682:44 0.000242557
31 *272:12 *682:68 0.000621211
32 *468:45 *682:34 0
33 *508:12 *1892:A 0
34 *509:40 *682:42 6.2239e-05
35 *511:10 *2256:A 4.21594e-06
36 *511:10 *682:44 6.02277e-06
37 *512:38 *2256:A 0
38 *518:10 *682:68 8.79696e-05
39 *535:351 *682:68 0
40 *548:12 *682:34 0
41 *562:8 *2256:A 3.7122e-06
42 *562:40 *2256:A 5.97612e-05
43 *562:69 *682:44 9.68829e-05
44 *563:12 *682:34 0
45 *563:41 *682:21 0
46 *563:41 *682:34 0
47 *594:10 *682:44 6.33771e-05
48 *594:10 *682:68 7.43673e-05
49 *638:12 *682:68 0
50 *671:8 *1892:A 8.62783e-05
51 *672:10 *1892:A 4.6318e-06
*RES
1 *2158:X *682:8 40.5271 
2 *682:8 *1892:A 42.2879 
3 *682:8 *682:21 4.37071 
4 *682:21 *1893:B1 38 
5 *682:21 *682:34 20.2407 
6 *682:34 *682:42 24.2386 
7 *682:42 *682:44 4.01857 
8 *682:44 *2256:A 41.7079 
9 *682:44 *1897:A 38 
10 *682:42 *682:68 31.0536 
11 *682:68 *1906:B1 23 
12 *682:34 *1994:A 23 
*END

*D_NET *683 0.00728999
*CONN
*I *1912:A I *D sky130_fd_sc_hd__nor2_2
*I *1910:A I *D sky130_fd_sc_hd__nor3_2
*I *1904:A I *D sky130_fd_sc_hd__nor2_2
*I *1902:A I *D sky130_fd_sc_hd__nor3_2
*I *1898:B1 I *D sky130_fd_sc_hd__a21oi_2
*I *2256:X O *D sky130_fd_sc_hd__buf_2
*CAP
1 *1912:A 9.99679e-05
2 *1910:A 0.000325686
3 *1904:A 0
4 *1902:A 0
5 *1898:B1 0.000369053
6 *2256:X 0.000228375
7 *683:57 0.000616015
8 *683:46 0.000554725
9 *683:33 0.000365064
10 *683:25 0.0009716
11 *683:10 0.0008396
12 *1899:A2 *1898:B1 4.6318e-06
13 *1911:A *1910:A 5.36546e-05
14 *1911:B *1910:A 1.56762e-05
15 *1911:B *1912:A 0.000253028
16 *1911:C *683:57 6.16439e-05
17 *2034:CLK *683:46 9.15377e-06
18 *2036:CLK *683:33 0.000314165
19 *2199:A *683:33 0.000138718
20 *2256:A *683:10 1.24376e-05
21 *2274:A *1910:A 0.000144501
22 *104:10 *1910:A 5.79559e-05
23 *269:8 *1898:B1 0
24 *273:10 *1910:A 0.000106318
25 *512:14 *1898:B1 0.000109388
26 *512:38 *1898:B1 0
27 *512:38 *683:46 0
28 *512:51 *683:46 0
29 *515:16 *683:33 6.23248e-06
30 *515:33 *683:46 0
31 *516:18 *683:46 5.75756e-06
32 *516:18 *683:57 0.000176823
33 *546:10 *683:46 1.12863e-05
34 *546:10 *683:57 0.000207543
35 *546:12 *683:46 0.000138983
36 *546:14 *683:46 0.000136611
37 *546:16 *683:46 1.46784e-05
38 *546:79 *683:57 0.00021967
39 *563:24 *683:25 5.04167e-05
40 *563:24 *683:33 2.13733e-05
41 *564:12 *1898:B1 0
42 *564:46 *683:10 0.000269781
43 *564:48 *683:33 0.000112303
44 *591:14 *1912:A 0.000267173
*RES
1 *2256:X *683:10 42.93 
2 *683:10 *1898:B1 44.4836 
3 *683:10 *683:25 18.6043 
4 *683:25 *683:33 36.3386 
5 *683:33 *1902:A 23 
6 *683:25 *683:46 22.25 
7 *683:46 *1904:A 38 
8 *683:46 *683:57 20.7793 
9 *683:57 *1910:A 30.0014 
10 *683:57 *1912:A 26.48 
*END

*D_NET *684 0.00570042
*CONN
*I *1992:A I *D sky130_fd_sc_hd__inv_2
*I *2007:A I *D sky130_fd_sc_hd__inv_2
*I *2257:A I *D sky130_fd_sc_hd__clkbuf_4
*I *1932:A I *D sky130_fd_sc_hd__inv_2
*I *2159:X O *D sky130_fd_sc_hd__clkdlybuf4s25_1
*CAP
1 *1992:A 3.73168e-05
2 *2007:A 0
3 *2257:A 0
4 *1932:A 0
5 *2159:X 0.000357457
6 *684:48 0.00019761
7 *684:40 0.000457121
8 *684:24 0.000569385
9 *684:12 0.000569385
10 *684:10 0.000532427
11 *684:8 0.000667689
12 *684:8 *727:48 1.59094e-05
13 *684:10 *2159:A 0.000281955
14 *684:10 *688:27 1.22803e-05
15 *684:24 *685:6 0.000388668
16 *684:24 *685:10 0.000447777
17 *684:40 *688:27 0.000179451
18 *684:48 *2188:A 0.000113068
19 *684:48 *688:124 0
20 *1631:B *684:10 0
21 *1631:B *684:24 0.000270398
22 *2118:RESET_B *684:48 5.58003e-05
23 *165:10 *684:10 0.000163158
24 *230:10 *1992:A 2.32101e-05
25 *230:10 *684:40 6.17437e-06
26 *337:42 *684:10 0
27 *341:27 *684:8 3.59762e-05
28 *345:12 *684:24 0.000194523
29 *466:8 *1992:A 3.71369e-05
30 *466:8 *684:40 8.65442e-05
31 *586:10 *684:10 0
32 *586:10 *684:40 0
*RES
1 *2159:X *684:8 42.4329 
2 *684:8 *684:10 7.89214 
3 *684:10 *684:12 15 
4 *684:12 *684:24 44.2307 
5 *684:24 *1932:A 23 
6 *684:12 *2257:A 23 
7 *684:10 *684:40 20.1371 
8 *684:40 *684:48 34.4121 
9 *684:48 *2007:A 23 
10 *684:40 *1992:A 24.0979 
*END

*D_NET *685 0.0128337
*CONN
*I *2006:A I *D sky130_fd_sc_hd__inv_2
*I *1996:A I *D sky130_fd_sc_hd__inv_2
*I *1619:A I *D sky130_fd_sc_hd__inv_2
*I *1997:A I *D sky130_fd_sc_hd__inv_2
*I *1995:A I *D sky130_fd_sc_hd__inv_2
*I *2008:A I *D sky130_fd_sc_hd__inv_2
*I *2009:A I *D sky130_fd_sc_hd__inv_2
*I *2257:X O *D sky130_fd_sc_hd__clkbuf_4
*CAP
1 *2006:A 0.00035844
2 *1996:A 0
3 *1619:A 0
4 *1997:A 9.94933e-05
5 *1995:A 0
6 *2008:A 0
7 *2009:A 0.000148608
8 *2257:X 0.000112793
9 *685:72 0.000557684
10 *685:51 0.0015054
11 *685:41 0.00131815
12 *685:28 0.000607176
13 *685:26 0.000930818
14 *685:10 0.000331359
15 *685:6 0.000730672
16 *1997:A *688:60 5.3304e-05
17 *685:6 *1631:A 6.17437e-06
18 *685:10 *1631:A 2.64616e-05
19 *685:26 *1631:A 6.25829e-05
20 *685:41 *1825:B 0
21 *685:51 *1651:D 9.48975e-05
22 *685:51 *688:56 0.000380342
23 *685:51 *688:68 3.70187e-05
24 *685:51 *740:44 1.21972e-05
25 *685:72 *688:68 3.83473e-05
26 *1824:B *685:26 0.000580185
27 *1826:A2 *685:26 0.000270453
28 *1917:A1 *1997:A 0
29 *2250:A *685:72 0.000100486
30 *153:8 *685:26 0.000168744
31 *158:8 *685:72 0
32 *234:10 *685:51 1.46286e-05
33 *235:8 *685:72 0.000110913
34 *241:10 *685:28 0.000248445
35 *241:10 *685:41 3.92407e-05
36 *244:10 *2006:A 2.64616e-05
37 *246:10 *2009:A 0.000106277
38 *274:8 *685:51 8.85189e-05
39 *337:42 *685:6 0.000114032
40 *337:42 *685:10 1.46205e-05
41 *337:42 *685:26 0
42 *345:8 *685:10 0.000188934
43 *466:42 *685:26 0
44 *466:42 *685:28 0
45 *466:42 *685:41 0
46 *468:14 *685:26 0.000233962
47 *468:14 *685:28 0.000129135
48 *468:14 *685:41 5.59881e-05
49 *521:48 *685:72 0.000759232
50 *522:16 *685:51 1.69668e-05
51 *527:17 *685:72 0.000129969
52 *527:83 *685:72 8.87328e-05
53 *535:290 *2006:A 0.000130877
54 *549:40 *685:51 1.12487e-05
55 *549:40 *685:72 3.83059e-05
56 *549:55 *685:72 0.000121123
57 *549:99 *2006:A 5.67058e-05
58 *549:99 *685:28 8.30566e-06
59 *620:10 *685:26 0.000141252
60 *622:8 *685:51 0.000535761
61 *625:90 *685:51 0
62 *655:8 *685:72 5.58003e-05
63 *670:70 *685:72 0
64 *676:10 *685:41 0
65 *684:24 *685:6 0.000388668
66 *684:24 *685:10 0.000447777
*RES
1 *2257:X *685:6 27.4329 
2 *685:6 *685:10 5.88286 
3 *685:10 *2009:A 26.48 
4 *685:10 *2008:A 23 
5 *685:6 *685:26 28.5264 
6 *685:26 *685:28 4.01857 
7 *685:28 *1995:A 38 
8 *685:28 *685:41 23.7829 
9 *685:41 *685:51 30.6186 
10 *685:51 *1997:A 39.595 
11 *685:51 *685:72 30.6186 
12 *685:72 *1619:A 23 
13 *685:41 *1996:A 23 
14 *685:26 *2006:A 44.0486 
*END

*D_NET *686 0.00900545
*CONN
*I *2295:A I *D sky130_fd_sc_hd__clkdlybuf4s25_1
*I *1870:A1 I *D sky130_fd_sc_hd__a21oi_2
*I *1873:C I *D sky130_fd_sc_hd__and3_2
*I *1871:B I *D sky130_fd_sc_hd__and3_2
*I *2180:A I *D sky130_fd_sc_hd__dlygate4sd3_1
*I *2025:Q O *D sky130_fd_sc_hd__dfxtp_2
*CAP
1 *2295:A 0
2 *1870:A1 5.24073e-05
3 *1873:C 0.00018338
4 *1871:B 0.000354009
5 *2180:A 2.65677e-05
6 *2025:Q 0.000518188
7 *686:50 0.000305743
8 *686:37 0.00101809
9 *686:27 0.00102219
10 *686:12 0.000454634
11 *686:10 0.000518188
12 *1873:C *702:24 3.20742e-05
13 *686:27 *697:14 0.000137744
14 *686:27 *702:24 4.96824e-05
15 *686:37 *704:29 0.000382909
16 *1870:A2 *1870:A1 5.5792e-05
17 *1880:A *686:37 0.000100486
18 *1880:D *686:37 5.3304e-05
19 *2030:D *1871:B 0.00049631
20 *2030:D *686:37 5.3304e-05
21 *261:12 *686:10 0.000206534
22 *492:43 *1871:B 0.000137535
23 *492:60 *1870:A1 9.03933e-05
24 *492:60 *1871:B 0.000384214
25 *492:60 *1873:C 5.3304e-05
26 *492:60 *686:50 0.000111106
27 *492:71 *1870:A1 2.35118e-06
28 *492:87 *686:27 0.000118889
29 *492:95 *686:10 0.000199433
30 *497:10 *686:27 0
31 *501:14 *686:37 0.000402337
32 *504:19 *1870:A1 1.07299e-05
33 *543:37 *686:10 0
34 *559:31 *1871:B 0.000139352
35 *559:50 *2180:A 5.56279e-05
36 *559:50 *686:27 0.000445112
37 *577:10 *686:27 9.7231e-05
38 *603:12 *2180:A 3.7122e-06
39 *603:12 *686:27 6.40704e-05
40 *679:112 *686:27 0.000668517
*RES
1 *2025:Q *686:10 46.6793 
2 *686:10 *686:12 15 
3 *686:12 *2180:A 23.6214 
4 *686:12 *686:27 43.5057 
5 *686:27 *686:37 29.0236 
6 *686:37 *1871:B 46.7621 
7 *686:37 *686:50 1.55357 
8 *686:50 *1873:C 40.0507 
9 *686:50 *1870:A1 39.4707 
10 *686:27 *2295:A 23 
*END

*D_NET *687 0.0144509
*CONN
*I *2003:A I *D sky130_fd_sc_hd__inv_2
*I *1999:A I *D sky130_fd_sc_hd__inv_2
*I *2010:A I *D sky130_fd_sc_hd__inv_2
*I *2011:A I *D sky130_fd_sc_hd__inv_2
*I *1998:A I *D sky130_fd_sc_hd__inv_2
*I *2160:X O *D sky130_fd_sc_hd__clkdlybuf4s25_1
*CAP
1 *2003:A 0
2 *1999:A 0.000179604
3 *2010:A 0.000295892
4 *2011:A 0
5 *1998:A 5.65485e-05
6 *2160:X 0.000673228
7 *687:70 0.000711165
8 *687:63 0.00204062
9 *687:47 0.00241872
10 *687:36 0.00109024
11 *687:18 0.000907364
12 *687:12 0.000689329
13 *1998:A *772:12 0.0002778
14 *687:12 *744:38 4.35681e-06
15 *687:36 *1649:C 0.000176045
16 *687:36 *2219:A 6.37905e-05
17 *687:36 *747:25 0
18 *687:36 *748:21 4.45034e-05
19 *687:47 *2121:D 0
20 *687:47 *750:8 0.000169385
21 *687:63 *1914:B1 0
22 *687:63 *688:68 0
23 *687:70 *2121:D 0
24 *1804:A *687:36 0.000138872
25 *1811:B *2010:A 8.88287e-05
26 *1931:C *687:63 0.000958858
27 *2109:RESET_B *1998:A 0.000233367
28 *2122:CLK *1999:A 0
29 *124:12 *687:63 0
30 *160:10 *687:70 0.000191429
31 *169:18 *687:63 0
32 *234:10 *687:36 0.000194532
33 *237:10 *1999:A 0
34 *248:6 *2010:A 0.000309205
35 *278:18 *687:63 3.67392e-05
36 *360:21 *687:36 0.000189609
37 *360:21 *687:47 5.20172e-05
38 *361:8 *2010:A 0.000311612
39 *366:10 *687:12 1.05658e-05
40 *468:14 *687:18 2.05503e-05
41 *530:10 *1999:A 0
42 *535:290 *687:36 0.000149925
43 *549:68 *1999:A 1.21761e-05
44 *549:86 *687:36 0.000102389
45 *549:99 *687:36 0.000191255
46 *621:8 *687:36 0.000166129
47 *625:58 *687:63 1.31905e-05
48 *651:18 *687:63 7.60468e-05
49 *652:8 *687:36 0.000191276
50 *652:8 *687:47 0.000154843
51 *670:80 *687:63 0.000853288
52 *670:80 *687:70 5.58873e-06
*RES
1 *2160:X *687:12 47.7509 
2 *687:12 *687:18 23.3211 
3 *687:18 *687:36 37.3507 
4 *687:36 *1998:A 41.0036 
5 *687:36 *687:47 4.19464 
6 *687:47 *687:63 37.4927 
7 *687:63 *2011:A 23 
8 *687:47 *687:70 4.54679 
9 *687:70 *2010:A 47.715 
10 *687:70 *1999:A 40.9621 
11 *687:18 *2003:A 23 
*END

*D_NET *688 0.0221608
*CONN
*I *2160:A I *D sky130_fd_sc_hd__clkdlybuf4s25_1
*I *1917:B1 I *D sky130_fd_sc_hd__a31o_2
*I *1927:B1 I *D sky130_fd_sc_hd__a31o_2
*I *1923:B1 I *D sky130_fd_sc_hd__a31o_2
*I *1914:B1 I *D sky130_fd_sc_hd__a21oi_2
*I *2158:A I *D sky130_fd_sc_hd__clkdlybuf4s25_1
*I *2159:A I *D sky130_fd_sc_hd__clkdlybuf4s25_1
*I *2161:X O *D sky130_fd_sc_hd__clkdlybuf4s25_1
*CAP
1 *2160:A 0
2 *1917:B1 0
3 *1927:B1 0.000244921
4 *1923:B1 0
5 *1914:B1 0.00031526
6 *2158:A 0
7 *2159:A 0.000282475
8 *2161:X 0
9 *688:124 0.000805398
10 *688:95 0.000276137
11 *688:87 0.000985276
12 *688:68 0.00121922
13 *688:60 0.00051125
14 *688:56 0.000832033
15 *688:47 0.00013925
16 *688:41 0.00113692
17 *688:27 0.0029141
18 *688:8 0.0014808
19 *688:4 0.000847819
20 *688:27 *2251:A 3.22879e-05
21 *688:56 *1803:A1 8.3843e-05
22 *688:56 *740:25 0.000260655
23 *688:56 *740:44 0.000452063
24 *688:56 *747:16 1.75479e-05
25 *1818:A *688:124 8.34135e-05
26 *1821:C *688:124 0.000228123
27 *1827:B *688:27 0.000136738
28 *1829:B *688:27 0.000597758
29 *1892:A *688:41 5.50049e-05
30 *1924:A1 *688:87 0
31 *1924:A1 *688:95 6.29446e-05
32 *1924:A2 *688:95 2.33476e-05
33 *1930:A3 *1927:B1 0
34 *1997:A *688:60 5.3304e-05
35 *2032:CLK *688:41 0.000108672
36 *2250:A *688:87 0.000232967
37 *2263:A *688:41 0.000182826
38 *124:12 *1914:B1 0.00039245
39 *126:12 *688:68 0
40 *154:8 *688:56 0.000246423
41 *155:8 *688:56 0.000198447
42 *169:18 *1914:B1 3.54163e-05
43 *230:10 *2159:A 4.06408e-05
44 *230:10 *688:27 5.61414e-05
45 *230:10 *688:124 0
46 *247:8 *688:41 0
47 *247:8 *688:56 0
48 *266:10 *688:41 5.67058e-05
49 *272:12 *1914:B1 7.38547e-05
50 *274:8 *688:56 3.81927e-05
51 *278:10 *688:95 2.19403e-05
52 *278:18 *688:95 9.66585e-05
53 *335:10 *2159:A 0
54 *335:23 *2159:A 0
55 *337:8 *2159:A 0.000259447
56 *464:16 *688:124 3.91699e-05
57 *466:8 *688:27 0.000107929
58 *467:10 *688:124 0.000375985
59 *468:14 *688:27 3.06991e-05
60 *468:45 *688:27 5.03716e-05
61 *468:45 *688:41 5.12254e-05
62 *470:10 *688:56 0.000512497
63 *509:21 *688:47 0
64 *525:12 *1914:B1 0.000700862
65 *525:12 *688:68 0.000369837
66 *527:23 *688:87 0.000380316
67 *527:83 *688:87 0
68 *528:20 *688:95 2.33476e-05
69 *531:12 *1927:B1 5.92689e-05
70 *531:12 *688:95 4.52198e-05
71 *531:19 *1927:B1 4.84155e-05
72 *535:290 *688:124 2.93747e-05
73 *539:35 *688:124 6.21642e-05
74 *547:39 *1914:B1 3.39102e-05
75 *547:52 *1914:B1 4.87927e-05
76 *548:12 *688:41 8.16356e-05
77 *548:12 *688:56 0
78 *549:12 *688:56 0.00051839
79 *549:40 *688:56 0.000632377
80 *560:44 *688:41 0.000310641
81 *561:16 *688:41 3.31683e-05
82 *561:61 *688:41 1.69668e-05
83 *586:10 *688:27 9.84851e-05
84 *625:90 *688:68 1.86822e-05
85 *656:10 *688:27 9.41704e-05
86 *660:52 *1927:B1 5.3304e-05
87 *660:52 *688:95 0.000131711
88 *661:27 *688:87 0.000125853
89 *670:70 *688:87 0
90 *670:125 *688:95 2.79396e-05
91 *684:10 *2159:A 0.000281955
92 *684:10 *688:27 1.22803e-05
93 *684:40 *688:27 0.000179451
94 *684:48 *688:124 0
95 *685:51 *688:56 0.000380342
96 *685:51 *688:68 3.70187e-05
97 *685:72 *688:68 3.83473e-05
98 *687:63 *1914:B1 0
99 *687:63 *688:68 0
*RES
1 *2161:X *688:4 23 
2 *688:4 *688:8 15.6214 
3 *688:8 *2159:A 46.5964 
4 *688:8 *688:27 36.5014 
5 *688:27 *688:41 48.125 
6 *688:41 *688:47 31.9057 
7 *688:47 *2158:A 23 
8 *688:27 *688:56 41.5557 
9 *688:56 *688:60 16.0979 
10 *688:60 *688:68 25.2835 
11 *688:68 *1914:B1 48.3694 
12 *688:68 *688:87 32.8289 
13 *688:87 *688:95 35.4893 
14 *688:95 *1923:B1 23 
15 *688:87 *1927:B1 27.8057 
16 *688:60 *1917:B1 23 
17 *688:4 *688:124 47.8557 
18 *688:124 *2160:A 23 
*END

*D_NET *689 0.00415281
*CONN
*I *2258:A I *D sky130_fd_sc_hd__buf_4
*I *1937:A I *D sky130_fd_sc_hd__inv_2
*I *1989:A I *D sky130_fd_sc_hd__inv_2
*I *1988:A I *D sky130_fd_sc_hd__inv_2
*I *1936:A I *D sky130_fd_sc_hd__inv_2
*I *2162:X O *D sky130_fd_sc_hd__clkdlybuf4s25_1
*CAP
1 *2258:A 0.00013565
2 *1937:A 3.61947e-05
3 *1989:A 0.000142594
4 *1988:A 0.000147285
5 *1936:A 0
6 *2162:X 0.000264667
7 *689:44 0.00034817
8 *689:17 0.000956655
9 *689:6 0.000755117
10 *689:17 *730:6 7.01168e-05
11 *689:17 *730:27 9.84137e-05
12 *689:44 *2162:A 2.10502e-05
13 *1739:B *2258:A 3.50862e-06
14 *175:10 *2258:A 7.75677e-05
15 *175:10 *689:44 0.000100477
16 *226:8 *1988:A 0.000115526
17 *227:10 *1989:A 3.50862e-06
18 *434:12 *689:17 0.00016693
19 *434:25 *689:17 3.34493e-05
20 *554:41 *689:17 7.84772e-05
21 *557:10 *1937:A 1.77552e-05
22 *557:10 *2258:A 3.98882e-06
23 *557:14 *689:6 5.56356e-05
24 *557:14 *689:44 7.71199e-05
25 *557:22 *689:6 0.000189176
26 *557:22 *689:17 7.25554e-05
27 *557:32 *689:17 0.000181215
*RES
1 *2162:X *689:6 25.5271 
2 *689:6 *1936:A 23 
3 *689:6 *689:17 28.9821 
4 *689:17 *1988:A 40.9621 
5 *689:17 *1989:A 40.9621 
6 *2162:X *689:44 41.9564 
7 *689:44 *1937:A 38.8493 
8 *689:44 *2258:A 40.61 
*END

*D_NET *690 0.0114848
*CONN
*I *1938:A I *D sky130_fd_sc_hd__inv_2
*I *1948:A I *D sky130_fd_sc_hd__inv_2
*I *1941:A I *D sky130_fd_sc_hd__inv_2
*I *1939:A I *D sky130_fd_sc_hd__inv_2
*I *1940:A I *D sky130_fd_sc_hd__inv_2
*I *1942:A I *D sky130_fd_sc_hd__inv_2
*I *2258:X O *D sky130_fd_sc_hd__buf_4
*CAP
1 *1938:A 0.000373337
2 *1948:A 0
3 *1941:A 0.000233799
4 *1939:A 0.000147462
5 *1940:A 3.93866e-05
6 *1942:A 0
7 *2258:X 7.3841e-05
8 *690:75 0.000705522
9 *690:54 0.00141629
10 *690:30 0.000460386
11 *690:20 0.00073289
12 *690:18 0.00159967
13 *690:8 0.00101663
14 *690:30 *1750:A 0.000479335
15 *690:30 *714:12 0.000110184
16 *690:30 *714:36 1.00084e-05
17 *690:75 *1979:A 5.56279e-05
18 *690:75 *694:77 5.3304e-05
19 *690:75 *694:92 0.000134836
20 *1739:B *1938:A 2.50118e-05
21 *1756:A *690:54 0.000493756
22 *1756:B *690:18 0.000273164
23 *1756:B *690:20 0.000142577
24 *1767:A2 *690:18 0.00037665
25 *177:8 *690:75 0
26 *180:10 *690:30 1.32314e-05
27 *217:10 *690:75 0.000106277
28 *284:10 *690:54 0.000201739
29 *284:10 *690:75 0.000208692
30 *423:8 *1938:A 6.4554e-05
31 *423:22 *1938:A 0.000182222
32 *423:22 *690:8 7.61229e-06
33 *423:26 *690:18 0.000155657
34 *426:67 *690:54 0.000394863
35 *426:92 *690:54 0.00021036
36 *427:30 *690:54 5.07277e-05
37 *433:10 *690:30 9.58714e-05
38 *438:10 *690:20 3.39928e-05
39 *535:154 *690:75 0
40 *551:12 *1941:A 5.3304e-05
41 *551:18 *1941:A 0.000183544
42 *551:69 *1941:A 0.000368598
43 *551:69 *690:75 0.000199851
*RES
1 *2258:X *690:8 24.8229 
2 *690:8 *690:18 41.4136 
3 *690:18 *690:20 3.48 
4 *690:20 *690:30 39.3421 
5 *690:30 *1942:A 23 
6 *690:20 *1940:A 23.8493 
7 *690:18 *690:54 34.285 
8 *690:54 *1939:A 40.5271 
9 *690:54 *690:75 26.3514 
10 *690:75 *1941:A 29.3386 
11 *690:75 *1948:A 23 
12 *690:8 *1938:A 28.7586 
*END

*D_NET *691 0.00641994
*CONN
*I *1935:A I *D sky130_fd_sc_hd__inv_2
*I *1972:A I *D sky130_fd_sc_hd__inv_2
*I *1981:A I *D sky130_fd_sc_hd__inv_2
*I *2259:A I *D sky130_fd_sc_hd__clkbuf_4
*I *2163:X O *D sky130_fd_sc_hd__clkdlybuf4s25_1
*CAP
1 *1935:A 0
2 *1972:A 4.00941e-05
3 *1981:A 6.60096e-05
4 *2259:A 0.000258768
5 *2163:X 0
6 *691:49 0.000683984
7 *691:36 0.00152441
8 *691:21 0.00100378
9 *691:6 0.000396207
10 *1981:A *701:10 1.16652e-05
11 *2259:A *692:10 2.93335e-05
12 *691:36 *693:21 0
13 *691:36 *701:10 5.61255e-06
14 *691:36 *701:57 0.000566748
15 *691:36 *701:72 0.000620108
16 *691:36 *710:14 0
17 *691:36 *720:10 0.000166522
18 *691:49 *2178:A 0
19 mem_addr[10] *691:36 0
20 mem_addr[11] *691:36 0
21 mem_addr[14] *691:36 0
22 mem_addr[17] *691:36 0
23 mem_addr[18] *691:36 9.33529e-06
24 mem_addr[20] *691:49 7.76909e-06
25 mem_addr[28] *691:49 9.33529e-06
26 mem_addr[29] *691:49 0
27 mem_addr[30] *691:49 4.21594e-06
28 mem_addr[4] *2259:A 2.33476e-05
29 mem_addr[8] *691:36 1.53581e-05
30 *2168:A *691:36 5.50106e-05
31 *27:12 *691:36 6.22763e-05
32 *35:12 *2259:A 2.43944e-05
33 *41:12 *691:49 5.02657e-05
34 *43:10 *691:49 0
35 *49:12 *2259:A 4.00113e-05
36 *210:10 *1972:A 4.91172e-06
37 *210:10 *691:49 0.000196318
38 *352:14 *691:49 0
39 *558:8 *2259:A 0.000240988
40 *558:8 *691:21 0.00016501
41 *575:8 *691:49 0.000138151
*RES
1 *2163:X *691:6 38 
2 *691:6 *2259:A 43.365 
3 *691:6 *691:21 17.61 
4 *691:21 *1981:A 24.1186 
5 *691:21 *691:36 35.2586 
6 *691:36 *1972:A 38.6214 
7 *691:36 *691:49 29.5829 
8 *691:49 *1935:A 23 
*END

*D_NET *692 0.0162661
*CONN
*I *1951:A I *D sky130_fd_sc_hd__inv_2
*I *1945:A I *D sky130_fd_sc_hd__inv_2
*I *1944:A I *D sky130_fd_sc_hd__inv_2
*I *1983:A I *D sky130_fd_sc_hd__inv_2
*I *1982:A I *D sky130_fd_sc_hd__inv_2
*I *1943:A I *D sky130_fd_sc_hd__inv_2
*I *1985:A I *D sky130_fd_sc_hd__inv_2
*I *2259:X O *D sky130_fd_sc_hd__clkbuf_4
*CAP
1 *1951:A 0.000769411
2 *1945:A 0.000170214
3 *1944:A 0.000138735
4 *1983:A 0
5 *1982:A 0
6 *1943:A 0
7 *1985:A 0.00030227
8 *2259:X 0.000751148
9 *692:90 0.0008873
10 *692:78 0.00167507
11 *692:59 0.00116748
12 *692:46 0.000502189
13 *692:42 0.00128332
14 *692:31 0.000895441
15 *692:14 0.000912557
16 *692:10 0.000888909
17 *1944:A *698:27 5.05975e-05
18 *1944:A *698:37 5.67058e-05
19 *1945:A *2174:A 9.79925e-05
20 *1985:A *1714:A_N 0
21 *692:10 *2216:A 0.000186041
22 *692:31 *2162:A 8.58512e-05
23 *692:78 *716:38 0.000427464
24 *692:90 *694:67 0.000111764
25 *692:90 *694:144 0.000210612
26 *692:90 *707:14 0.000135007
27 *692:90 *718:10 0.000365724
28 *692:90 *725:12 1.2878e-05
29 *1718:B1 *1951:A 2.93747e-05
30 *1735:B1 *692:78 2.02872e-05
31 *1736:A2 *692:90 0.000150723
32 *1740:A1 *692:10 0.000141355
33 *1740:A2 *692:10 2.20564e-05
34 *1793:B *692:59 4.83778e-05
35 *1793:B *692:78 2.22079e-05
36 *1795:B1_N *692:31 5.09441e-05
37 *1842:B1 *692:90 0.000221306
38 *2050:CLK *1945:A 0.000364774
39 *2050:CLK *692:78 1.12268e-05
40 *2083:CLK *1945:A 0.000307659
41 *2092:CLK *1951:A 0.000199757
42 *2096:CLK *692:31 7.97499e-05
43 *2096:CLK *692:42 9.13004e-05
44 *2259:A *692:10 2.93335e-05
45 *13:10 *692:59 5.58863e-05
46 *13:10 *692:78 0.000308559
47 *13:10 *692:90 0
48 *15:8 *1985:A 0
49 *35:12 *692:10 0.000100061
50 *49:12 *692:10 5.79559e-05
51 *135:10 *692:78 0.000141869
52 *136:10 *1985:A 0
53 *176:8 *692:42 0
54 *181:10 *692:14 2.58781e-05
55 *182:14 *692:90 0
56 *183:10 *1945:A 0.000178171
57 *183:10 *692:78 5.58003e-05
58 *189:10 *1951:A 6.17437e-06
59 *220:10 *1951:A 8.91468e-07
60 *220:10 *692:46 3.70071e-06
61 *220:10 *692:59 7.53384e-06
62 *288:10 *692:42 0.000115526
63 *290:8 *692:78 8.57577e-05
64 *296:10 *1951:A 5.3304e-05
65 *328:8 *692:90 0.000114083
66 *406:10 *1985:A 0.000196902
67 *421:10 *692:42 0
68 *426:22 *692:78 5.93981e-05
69 *537:28 *692:42 0.00010927
70 *552:29 *692:59 0.000249909
71 *552:44 *692:59 9.84794e-05
72 *552:62 *692:59 0
73 *553:34 *692:42 0
74 *553:34 *692:59 6.38947e-05
75 *556:10 *692:78 9.41704e-05
76 *556:20 *692:78 6.32688e-05
77 *571:6 *692:78 0.000139024
78 *571:21 *692:78 5.55743e-06
79 *616:10 *692:59 0
*RES
1 *2259:X *692:10 37.6036 
2 *692:10 *692:14 17.2579 
3 *692:14 *1985:A 44.8357 
4 *692:14 *692:31 37.6436 
5 *692:31 *1943:A 38 
6 *692:31 *692:42 22.54 
7 *692:42 *692:46 1.47071 
8 *692:46 *1982:A 23 
9 *692:46 *692:59 24.4043 
10 *692:59 *1983:A 38 
11 *692:59 *692:78 33.9743 
12 *692:78 *692:90 48.56 
13 *692:90 *1944:A 26.0243 
14 *692:78 *1945:A 30.2914 
15 *692:42 *1951:A 34.6207 
*END

*D_NET *693 0.00258012
*CONN
*I *2163:A I *D sky130_fd_sc_hd__clkdlybuf4s25_1
*I *2260:A I *D sky130_fd_sc_hd__clkbuf_4
*I *2164:X O *D sky130_fd_sc_hd__clkdlybuf4s25_1
*CAP
1 *2163:A 0
2 *2260:A 0.000351136
3 *2164:X 0
4 *693:21 0.000510944
5 *693:4 0.00086208
6 mem_addr[10] *693:21 0.000126151
7 mem_addr[8] *693:21 3.64059e-05
8 *25:8 *2260:A 0.000132865
9 *51:10 *693:21 0
10 *55:10 *693:21 0.000560535
11 *558:8 *693:21 0
12 *691:36 *693:21 0
*RES
1 *2164:X *693:4 23 
2 *693:4 *2260:A 27.93 
3 *693:4 *693:21 41.3307 
4 *693:21 *2163:A 23 
*END

*D_NET *694 0.0202027
*CONN
*I *1986:A I *D sky130_fd_sc_hd__inv_2
*I *1971:A I *D sky130_fd_sc_hd__inv_2
*I *1949:A I *D sky130_fd_sc_hd__inv_2
*I *1979:A I *D sky130_fd_sc_hd__inv_2
*I *1984:A I *D sky130_fd_sc_hd__inv_2
*I *1987:A I *D sky130_fd_sc_hd__inv_2
*I *2162:A I *D sky130_fd_sc_hd__clkdlybuf4s25_1
*I *2260:X O *D sky130_fd_sc_hd__clkbuf_4
*CAP
1 *1986:A 0
2 *1971:A 0
3 *1949:A 0
4 *1979:A 1.56031e-05
5 *1984:A 6.80978e-05
6 *1987:A 2.53239e-05
7 *2162:A 0.000845737
8 *2260:X 0.000247928
9 *694:144 0.000665919
10 *694:122 0.000451066
11 *694:112 0.000809149
12 *694:92 0.000707719
13 *694:77 0.000798446
14 *694:67 0.00104778
15 *694:53 0.0022378
16 *694:38 0.00121888
17 *694:27 0.000537579
18 *694:16 0.00190099
19 *694:8 0.00162196
20 *1987:A *719:66 0.00014196
21 *694:8 *1742:A_N 0.000140259
22 *694:16 *1714:A_N 1.00286e-05
23 *694:16 *1715:C 0.000149534
24 *694:16 *1742:A_N 5.86432e-05
25 *694:16 *2213:A 2.193e-05
26 *694:16 *706:12 4.92644e-05
27 *694:16 *706:34 0.000161422
28 *694:16 *717:21 6.86773e-05
29 *694:16 *717:27 0.000432095
30 *694:27 *1742:A_N 9.48381e-06
31 *694:38 *701:74 3.31127e-05
32 *694:53 *1639:A 6.437e-05
33 *694:53 *701:74 0.000331448
34 *694:67 *1612:A 7.79323e-05
35 *694:122 *727:16 1.0092e-05
36 *694:122 *731:122 0
37 *694:144 *698:27 9.84851e-05
38 *694:144 *725:12 0.000476768
39 *1736:A2 *694:67 0.000113965
40 *1736:A3 *694:67 0.000136738
41 *1736:B1 *694:144 5.78754e-05
42 *1792:A *694:8 9.65021e-05
43 *1794:B1 *694:16 0
44 *1795:B1_N *2162:A 0.000148142
45 *1974:A *694:122 0
46 *2126:A *694:53 2.05881e-05
47 *2150:A *694:92 0.000272965
48 *25:8 *694:8 5.00666e-05
49 *136:10 *2162:A 0.000145171
50 *137:8 *694:27 3.81391e-05
51 *138:10 *694:8 9.67842e-05
52 *175:10 *2162:A 1.09834e-05
53 *189:10 *694:16 5.561e-05
54 *224:8 *694:144 0.000197479
55 *225:8 *694:27 0
56 *284:10 *694:92 0.000165394
57 *321:14 *694:67 8.86467e-05
58 *328:8 *694:144 3.72639e-05
59 *348:12 *694:27 0
60 *348:20 *1987:A 0.00014196
61 *350:10 *694:53 6.10802e-05
62 *351:10 *694:53 5.6882e-05
63 *407:12 *694:16 0
64 *407:25 *694:16 0
65 *409:8 *694:16 0
66 *421:42 *694:8 9.84851e-05
67 *421:42 *694:16 0
68 *427:18 *694:122 0.000230718
69 *427:30 *694:92 0.000288689
70 *446:8 *694:112 1.58785e-05
71 *446:12 *694:112 4.10255e-05
72 *538:8 *694:53 0.000186041
73 *538:65 *694:144 0
74 *538:76 *694:144 0
75 *550:10 *694:122 0.000584028
76 *551:69 *1979:A 5.56279e-05
77 *551:69 *694:77 0.000331084
78 *551:78 *694:77 1.12863e-05
79 *556:88 *694:16 0
80 *556:88 *694:27 0
81 *556:88 *694:38 0
82 *556:106 *694:38 0
83 *556:106 *694:53 0
84 *565:10 *694:144 5.08733e-05
85 *595:10 *694:16 0
86 *615:6 *2162:A 9.98623e-05
87 *615:6 *694:16 8.289e-06
88 *689:44 *2162:A 2.10502e-05
89 *690:75 *1979:A 5.56279e-05
90 *690:75 *694:77 5.3304e-05
91 *690:75 *694:92 0.000134836
92 *692:31 *2162:A 8.58512e-05
93 *692:90 *694:67 0.000111764
94 *692:90 *694:144 0.000210612
*RES
1 *2260:X *694:8 42.9093 
2 *694:8 *694:16 36.8536 
3 *694:16 *2162:A 39.3643 
4 *694:8 *694:27 6.13143 
5 *694:27 *1987:A 39.5743 
6 *694:27 *694:38 3.31429 
7 *694:38 *1984:A 39.0979 
8 *694:38 *694:53 34.575 
9 *694:53 *694:67 41.2893 
10 *694:67 *694:77 38.845 
11 *694:77 *1979:A 23.6214 
12 *694:77 *694:92 39.0314 
13 *694:92 *694:112 47.6271 
14 *694:112 *694:122 40.0464 
15 *694:122 *1949:A 23 
16 *694:67 *1971:A 23 
17 *694:53 *694:144 46.6957 
18 *694:144 *1986:A 23 
*END

*D_NET *695 0.00561369
*CONN
*I *2261:A I *D sky130_fd_sc_hd__buf_4
*I *1966:A I *D sky130_fd_sc_hd__inv_2
*I *1991:A I *D sky130_fd_sc_hd__inv_2
*I *1990:A I *D sky130_fd_sc_hd__inv_2
*I *1993:A I *D sky130_fd_sc_hd__inv_2
*I *2165:X O *D sky130_fd_sc_hd__clkdlybuf4s25_1
*CAP
1 *2261:A 0
2 *1966:A 0
3 *1991:A 0
4 *1990:A 0
5 *1993:A 0.000270526
6 *2165:X 0.000805591
7 *695:63 0.000279342
8 *695:30 0.000666328
9 *695:20 0.000479905
10 *695:18 0.000123473
11 *695:14 0.00056562
12 *1993:A *2161:A 0.000575797
13 *1993:A *701:92 5.07485e-05
14 *695:14 *696:20 2.93845e-05
15 *695:30 *701:92 0.000343487
16 *695:63 *696:14 2.87842e-05
17 *695:63 *696:20 0.000279219
18 *695:63 *700:35 2.30292e-05
19 *1671:B *695:14 0
20 *2078:CLK *695:18 0.000100061
21 *2078:CLK *695:20 0.000233769
22 *2078:CLK *695:30 0.000233367
23 *203:8 *695:63 1.50326e-05
24 *311:10 *695:14 0
25 *312:8 *695:14 0.000187779
26 *374:6 *695:14 5.50106e-05
27 *374:19 *695:63 9.24795e-06
28 *539:10 *695:30 0.000246748
29 *539:18 *695:30 1.14452e-05
*RES
1 *2165:X *695:14 48.4607 
2 *695:14 *695:18 16.0979 
3 *695:18 *695:20 2.52714 
4 *695:20 *695:30 39.7979 
5 *695:30 *1993:A 30.2914 
6 *695:30 *1990:A 23 
7 *695:20 *1991:A 23 
8 *695:18 *1966:A 23 
9 *2165:X *695:63 42.8057 
10 *695:63 *2261:A 38 
*END

*D_NET *696 0.013162
*CONN
*I *2005:A I *D sky130_fd_sc_hd__inv_2
*I *1964:A I *D sky130_fd_sc_hd__inv_2
*I *1956:A I *D sky130_fd_sc_hd__inv_2
*I *1955:A I *D sky130_fd_sc_hd__inv_2
*I *1963:A I *D sky130_fd_sc_hd__inv_2
*I *2004:A I *D sky130_fd_sc_hd__inv_2
*I *2261:X O *D sky130_fd_sc_hd__buf_4
*CAP
1 *2005:A 0
2 *1964:A 0
3 *1956:A 0.00024974
4 *1955:A 0
5 *1963:A 0
6 *2004:A 5.19135e-05
7 *2261:X 0.000268807
8 *696:112 0.000562813
9 *696:80 0.000894056
10 *696:61 0.00112222
11 *696:53 0.00144199
12 *696:38 0.000609907
13 *696:34 0.000706412
14 *696:20 0.00104527
15 *696:14 0.000764388
16 *1956:A *2241:A 0.000145171
17 *696:14 *700:35 9.67842e-05
18 *696:20 *1663:A 2.02872e-05
19 *696:20 *2201:A 0.000103415
20 *696:34 *2189:A 0.000167102
21 *696:53 *1654:A 0
22 *696:53 *1654:B 0
23 *696:61 *1661:A 0
24 *696:61 *757:51 3.3123e-05
25 *696:61 *773:18 8.28966e-05
26 *696:80 *1661:A 3.39192e-05
27 *696:112 *757:51 9.59004e-05
28 *696:112 *771:20 0.000229174
29 *1663:B *696:20 0.000189176
30 *1674:B *696:112 6.45119e-06
31 *1684:C *696:80 2.18409e-05
32 *1703:A *1956:A 0.000220086
33 *1703:A *696:80 0.000100069
34 *2116:RESET_B *696:34 5.58003e-05
35 *2143:A *696:53 5.50049e-05
36 *150:10 *696:34 0.000193024
37 *193:10 *696:80 0.000110258
38 *194:10 *1956:A 7.67578e-05
39 *201:10 *696:61 8.17373e-05
40 *201:10 *696:80 1.3867e-05
41 *202:10 *696:112 1.98483e-05
42 *203:8 *696:14 2.11489e-05
43 *242:8 *696:38 0.000214585
44 *308:8 *696:61 0.00014411
45 *309:16 *696:112 1.65046e-05
46 *359:38 *696:80 3.22879e-05
47 *371:6 *696:61 9.91101e-05
48 *371:6 *696:80 0.000279493
49 *372:12 *696:80 1.92253e-05
50 *372:14 *696:61 0
51 *373:8 *696:112 1.83046e-05
52 *374:6 *696:20 0.000142219
53 *374:19 *696:20 1.94812e-05
54 *385:10 *696:112 6.17437e-06
55 *386:10 *696:61 0.000387957
56 *387:10 *696:80 0
57 *399:10 *696:80 0.000207801
58 *400:8 *696:80 0
59 *535:233 *696:34 0.000111741
60 *535:233 *696:38 0
61 *535:285 *2004:A 4.76809e-05
62 *539:48 *696:53 0.000128401
63 *540:21 *696:53 0
64 *540:21 *696:61 3.47781e-05
65 *540:40 *696:61 0.000349395
66 *540:44 *696:61 0
67 *540:79 *696:61 0
68 *587:10 *696:38 3.81803e-05
69 *645:14 *696:80 0
70 *674:18 *696:61 0
71 *674:44 *696:61 0
72 *674:44 *696:112 0.000358576
73 *674:58 *696:112 0.000278228
74 *695:14 *696:20 2.93845e-05
75 *695:63 *696:14 2.87842e-05
76 *695:63 *696:20 0.000279219
*RES
1 *2261:X *696:14 42.3707 
2 *696:14 *696:20 26.6 
3 *696:20 *696:34 40.0671 
4 *696:34 *696:38 18.6664 
5 *696:38 *2004:A 38.9736 
6 *696:38 *696:53 22.8714 
7 *696:53 *696:61 42.8636 
8 *696:61 *1963:A 23 
9 *696:61 *696:80 43.5886 
10 *696:80 *1955:A 23 
11 *696:80 *1956:A 29.3386 
12 *696:53 *696:112 43.5057 
13 *696:112 *1964:A 23 
14 *696:20 *2005:A 23 
*END

*D_NET *697 0.00929105
*CONN
*I *2210:A I *D sky130_fd_sc_hd__dlygate4sd3_1
*I *1873:B I *D sky130_fd_sc_hd__and3_2
*I *1871:A I *D sky130_fd_sc_hd__and3_2
*I *2296:A I *D sky130_fd_sc_hd__clkdlybuf4s25_1
*I *2026:Q O *D sky130_fd_sc_hd__dfxtp_2
*CAP
1 *2210:A 0.000140699
2 *1873:B 0.000248239
3 *1871:A 5.2473e-05
4 *2296:A 0
5 *2026:Q 5.89092e-05
6 *697:39 0.00154174
7 *697:24 0.000683185
8 *697:14 0.00228136
9 *697:6 0.000556754
10 *2210:A *702:24 2.50118e-05
11 *1864:B *697:24 0
12 *1865:D *697:24 0.000166522
13 *1869:A1 *2210:A 0.000102971
14 *1880:A *697:14 1.34373e-05
15 *2022:CLK *697:24 0.000166522
16 *2292:A *697:14 2.48343e-05
17 *2292:A *697:24 7.09173e-05
18 *258:12 *697:24 4.61454e-06
19 *488:10 *697:24 0
20 *491:44 *697:39 0
21 *492:43 *1873:B 6.72184e-06
22 *492:43 *697:39 6.10551e-06
23 *492:60 *1873:B 3.58158e-05
24 *502:21 *1873:B 0.000504505
25 *543:66 *697:14 3.94619e-05
26 *543:66 *697:24 0.000447962
27 *559:31 *1871:A 3.7122e-06
28 *668:8 *697:24 1.19796e-05
29 *668:12 *697:24 9.77405e-05
30 *668:24 *697:24 2.72789e-05
31 *668:31 *697:24 0.000227884
32 *668:44 *697:24 0.000288213
33 *675:24 *1873:B 0.000664477
34 *675:24 *697:39 2.11066e-05
35 *679:89 *697:14 0.000122178
36 *679:89 *697:24 0.00026339
37 *679:112 *697:14 0.000246579
38 *686:27 *697:14 0.000137744
*RES
1 *2026:Q *697:6 23.6214 
2 *697:6 *697:14 23.1304 
3 *697:14 *697:24 45.6082 
4 *697:24 *2296:A 38 
5 *697:14 *697:39 18.9531 
6 *697:39 *1871:A 38.6214 
7 *697:39 *1873:B 46.9486 
8 *697:6 *2210:A 26.3764 
*END

*D_NET *698 0.00340386
*CONN
*I *2262:A I *D sky130_fd_sc_hd__buf_4
*I *1934:A I *D sky130_fd_sc_hd__inv_2
*I *1967:A I *D sky130_fd_sc_hd__inv_2
*I *1965:A I *D sky130_fd_sc_hd__inv_2
*I *1968:A I *D sky130_fd_sc_hd__inv_2
*I *2166:X O *D sky130_fd_sc_hd__clkdlybuf4s25_1
*CAP
1 *2262:A 8.97965e-05
2 *1934:A 0
3 *1967:A 0
4 *1965:A 0
5 *1968:A 0
6 *2166:X 8.96591e-05
7 *698:37 0.000347144
8 *698:27 0.000783998
9 *698:16 0.000593274
10 *698:14 0.000320578
11 *698:10 0.000253955
12 *698:8 8.96591e-05
13 *2262:A *701:82 1.40958e-05
14 *698:8 *699:10 0
15 *698:8 *700:10 2.01531e-05
16 *698:8 *701:82 0
17 *698:8 *761:24 4.6318e-06
18 *698:14 *700:10 0.000143655
19 *698:14 *701:82 0.000158902
20 *698:16 *701:82 2.93845e-05
21 *698:37 *701:92 5.50106e-05
22 *1664:C *698:37 0
23 *1944:A *698:27 5.05975e-05
24 *1944:A *698:37 5.67058e-05
25 *2077:CLK *698:37 5.50106e-05
26 *205:10 *698:27 1.32314e-05
27 *205:10 *698:37 0.000135934
28 *312:8 *698:37 0
29 *694:144 *698:27 9.84851e-05
*RES
1 *2166:X *698:8 39.5536 
2 *698:8 *698:10 15 
3 *698:10 *698:14 4.93 
4 *698:14 *698:16 3.00357 
5 *698:16 *1968:A 23 
6 *698:16 *698:27 8.28571 
7 *698:27 *698:37 37.0221 
8 *698:37 *1965:A 23 
9 *698:27 *1967:A 23 
10 *698:14 *1934:A 23 
11 *698:10 *2262:A 24.595 
*END

*D_NET *699 0.00895528
*CONN
*I *1958:A I *D sky130_fd_sc_hd__inv_2
*I *1957:A I *D sky130_fd_sc_hd__inv_2
*I *1962:A I *D sky130_fd_sc_hd__inv_2
*I *1961:A I *D sky130_fd_sc_hd__inv_2
*I *1969:A I *D sky130_fd_sc_hd__inv_2
*I *1970:A I *D sky130_fd_sc_hd__inv_2
*I *2262:X O *D sky130_fd_sc_hd__buf_4
*CAP
1 *1958:A 0
2 *1957:A 0
3 *1962:A 0.000292717
4 *1961:A 0.00023069
5 *1969:A 0
6 *1970:A 0.000269752
7 *2262:X 0.000345815
8 *699:66 0.000493704
9 *699:58 0.00178193
10 *699:34 0.000523407
11 *699:32 0.00159422
12 *699:23 0.000650956
13 *699:10 0.000960529
14 *1970:A *2181:A 0.000233367
15 *699:10 *2181:A 0
16 *699:10 *761:14 1.83667e-05
17 *699:10 *761:24 0
18 *699:23 *2181:A 0
19 *699:23 *761:14 0.000190528
20 *699:23 *761:40 2.37243e-05
21 *699:23 *762:35 0
22 *699:32 *700:46 0
23 *699:32 *761:40 3.96108e-05
24 *699:32 *768:38 4.8419e-05
25 *699:58 *1959:A 0
26 *699:58 *700:46 0
27 *699:58 *700:59 0
28 *699:58 *766:60 0
29 *699:58 *767:75 0.000118807
30 *699:58 *768:38 8.26416e-05
31 *699:66 *765:60 0.000100477
32 *196:10 *699:58 6.17437e-06
33 *197:8 *699:58 0
34 *199:8 *699:32 0
35 *207:8 *699:23 0.000140036
36 *307:10 *699:58 0.000428682
37 *391:8 *699:58 0.000171906
38 *542:51 *699:58 6.68587e-05
39 *578:10 *1970:A 0.00014196
40 *698:8 *699:10 0
*RES
1 *2262:X *699:10 44.4007 
2 *699:10 *1970:A 43.8829 
3 *699:10 *699:23 7.89214 
4 *699:23 *1969:A 38 
5 *699:23 *699:32 6.13143 
6 *699:32 *699:34 15 
7 *699:34 *1961:A 26.9771 
8 *699:34 *1962:A 28.4064 
9 *699:32 *699:58 42.2393 
10 *699:58 *699:66 39.6529 
11 *699:66 *1957:A 23 
12 *699:58 *1958:A 23 
*END

*D_NET *700 0.0165249
*CONN
*I *1959:A I *D sky130_fd_sc_hd__inv_2
*I *2000:A I *D sky130_fd_sc_hd__inv_2
*I *2001:A I *D sky130_fd_sc_hd__inv_2
*I *2002:A I *D sky130_fd_sc_hd__inv_2
*I *1960:A I *D sky130_fd_sc_hd__inv_2
*I *2165:A I *D sky130_fd_sc_hd__clkdlybuf4s25_1
*I *2166:A I *D sky130_fd_sc_hd__clkdlybuf4s25_1
*I *2167:X O *D sky130_fd_sc_hd__clkdlybuf4s25_1
*CAP
1 *1959:A 0.000127638
2 *2000:A 0
3 *2001:A 0
4 *2002:A 9.83074e-06
5 *1960:A 0.000273628
6 *2165:A 0
7 *2166:A 8.71326e-05
8 *2167:X 0.000191281
9 *700:94 0.000318601
10 *700:84 0.000667302
11 *700:65 0.00293119
12 *700:59 0.00317771
13 *700:46 0.00152067
14 *700:35 0.000733463
15 *700:21 0.00182402
16 *700:10 0.000599339
17 *1959:A *766:14 0
18 *1960:A *2205:A 0.000401599
19 *1960:A *767:75 2.93845e-05
20 *2166:A *761:24 4.6595e-05
21 *700:10 *701:82 0
22 *700:10 *761:24 6.25829e-05
23 *700:21 *761:14 0
24 *700:21 *761:24 0.00025307
25 *700:35 *758:20 2.65505e-05
26 *700:46 *761:14 0
27 *700:59 *766:14 0
28 *700:84 *1689:A 3.28357e-06
29 *700:84 *753:56 0.000128723
30 *700:94 *753:56 0.00010018
31 *1695:A *1959:A 6.32866e-06
32 *2080:D *700:35 5.70419e-05
33 *197:8 *1959:A 0.000111615
34 *199:8 *700:46 0.000112722
35 *238:10 *700:84 7.61229e-06
36 *238:10 *700:94 8.77341e-05
37 *239:10 *700:94 9.81751e-05
38 *305:8 *700:59 4.58924e-05
39 *374:19 *700:35 0.00044107
40 *375:30 *2166:A 9.84794e-05
41 *375:30 *700:10 1.58805e-05
42 *375:30 *700:21 0.00012478
43 *376:8 *700:21 8.16253e-05
44 *376:22 *700:21 7.06124e-05
45 *376:22 *700:46 0.000176283
46 *377:20 *700:21 0
47 *388:25 *1959:A 0
48 *391:8 *700:59 0
49 *540:79 *2002:A 9.85586e-06
50 *540:79 *700:84 0.000192941
51 *541:40 *700:35 0.000472322
52 *541:44 *700:35 6.9805e-05
53 *542:10 *700:46 0
54 *542:43 *700:46 0
55 *542:43 *700:59 0
56 *542:51 *700:59 0
57 *578:10 *700:21 0
58 *585:10 *700:35 2.93845e-05
59 *642:8 *700:59 0
60 *673:10 *2002:A 2.46922e-05
61 *673:10 *700:84 0.000197421
62 *673:21 *700:84 0.000195248
63 *695:63 *700:35 2.30292e-05
64 *696:14 *700:35 9.67842e-05
65 *698:8 *700:10 2.01531e-05
66 *698:14 *700:10 0.000143655
67 *699:32 *700:46 0
68 *699:58 *1959:A 0
69 *699:58 *700:46 0
70 *699:58 *700:59 0
*RES
1 *2167:X *700:10 41.48 
2 *700:10 *2166:A 40.0507 
3 *700:10 *700:21 8.59643 
4 *700:21 *700:35 32.1721 
5 *700:35 *2165:A 23 
6 *700:21 *700:46 15.3493 
7 *700:46 *1960:A 44.3593 
8 *700:46 *700:59 8.7725 
9 *700:59 *700:65 21.4656 
10 *700:65 *2002:A 38.3211 
11 *700:65 *700:84 24.3732 
12 *700:84 *700:94 37.4986 
13 *700:94 *2001:A 23 
14 *700:84 *2000:A 23 
15 *700:59 *1959:A 40.5893 
*END

*D_NET *701 0.026897
*CONN
*I *2167:A I *D sky130_fd_sc_hd__clkdlybuf4s25_1
*I *2161:A I *D sky130_fd_sc_hd__clkdlybuf4s25_1
*I *2164:A I *D sky130_fd_sc_hd__clkdlybuf4s25_1
*I *1980:A I *D sky130_fd_sc_hd__inv_2
*I *2157:A I *D sky130_fd_sc_hd__clkdlybuf4s25_1
*I *2168:X O *D sky130_fd_sc_hd__clkdlybuf4s25_1
*CAP
1 *2167:A 4.95477e-05
2 *2161:A 0.000370041
3 *2164:A 0
4 *1980:A 0
5 *2157:A 0.000352621
6 *2168:X 0.000645574
7 *701:92 0.00179237
8 *701:82 0.00206021
9 *701:74 0.00171927
10 *701:72 0.00174756
11 *701:57 0.000983696
12 *701:43 0.000725981
13 *701:24 0.00309495
14 *701:16 0.00318597
15 *701:10 0.00154723
16 *701:24 *2237:A 0.00033391
17 *701:57 *720:24 0
18 *701:72 *719:56 5.77061e-05
19 *701:72 *720:24 0
20 *701:74 *1639:A 6.33206e-05
21 *701:74 *776:21 0.00011446
22 *701:74 *776:23 4.3407e-05
23 *701:74 *776:25 1.86869e-05
24 *701:92 *758:14 3.95483e-05
25 *701:92 *760:6 3.3577e-05
26 *701:92 *760:27 9.85891e-05
27 *1725:C *2157:A 0.000153164
28 *1760:B1 *701:43 0.000143655
29 *1767:A2 *701:24 4.22275e-05
30 *1767:B1 *701:24 0.000270261
31 *1779:A2 *701:74 0
32 *1782:B *701:43 0.000140259
33 *1981:A *701:10 1.16652e-05
34 *1993:A *2161:A 0.000575797
35 *1993:A *701:92 5.07485e-05
36 *2077:CLK *701:92 9.74625e-05
37 *2077:D *701:92 8.1796e-05
38 *2079:CLK *701:92 5.41288e-05
39 *2099:CLK *2157:A 9.66668e-05
40 *2100:CLK *701:24 0.000100486
41 *2100:D *701:24 1.05235e-05
42 *2168:A *701:10 3.7122e-06
43 *2235:A *701:24 5.3304e-05
44 *2262:A *701:82 1.40958e-05
45 *138:10 *701:57 0
46 *146:8 *701:74 0
47 *172:8 *701:74 0
48 *206:8 *701:82 0
49 *219:8 *701:57 3.0556e-05
50 *283:10 *701:24 0.000144494
51 *313:10 *701:82 0.000164282
52 *348:12 *701:57 0
53 *353:16 *701:74 0
54 *354:10 *701:74 8.7065e-05
55 *355:8 *701:74 5.56306e-05
56 *375:30 *701:82 0
57 *411:31 *2157:A 0.00011301
58 *412:14 *2157:A 5.91105e-05
59 *421:25 *701:16 0.000392217
60 *421:42 *701:16 0.000171826
61 *433:20 *701:24 4.44894e-05
62 *441:8 *701:43 2.18409e-05
63 *449:12 *701:43 0.00109293
64 *471:12 *2157:A 0
65 *555:80 *701:43 0.000140259
66 *555:84 *701:43 0.000169164
67 *555:86 *701:43 1.7992e-05
68 *557:50 *701:24 9.90115e-05
69 *576:8 *701:74 5.76501e-05
70 *579:18 *2157:A 6.35686e-05
71 *579:18 *701:43 0.000574526
72 *585:10 *701:82 0
73 *596:6 *701:24 0.000230903
74 *629:8 *701:57 3.67805e-05
75 *680:52 *2157:A 7.6774e-06
76 *691:36 *701:10 5.61255e-06
77 *691:36 *701:57 0.000566748
78 *691:36 *701:72 0.000620108
79 *694:38 *701:74 3.31127e-05
80 *694:53 *701:74 0.000331448
81 *695:30 *701:92 0.000343487
82 *698:8 *701:82 0
83 *698:14 *701:82 0.000158902
84 *698:16 *701:82 2.93845e-05
85 *698:37 *701:92 5.50106e-05
86 *700:10 *701:82 0
*RES
1 *2168:X *701:10 42.6814 
2 *701:10 *701:16 31.8407 
3 *701:16 *701:24 48.6607 
4 *701:24 *2157:A 45.9336 
5 *701:24 *701:43 36.5221 
6 *701:43 *1980:A 23 
7 *2168:X *701:57 45.54 
8 *701:57 *2164:A 38 
9 *701:57 *701:72 45.0593 
10 *701:72 *701:74 22.6821 
11 *701:74 *701:82 41.5171 
12 *701:82 *701:92 43.4407 
13 *701:92 *2161:A 31.7414 
14 *701:74 *2167:A 38.8493 
*END

*D_NET *702 0.00393484
*CONN
*I *2203:A I *D sky130_fd_sc_hd__dlygate4sd3_1
*I *2297:A I *D sky130_fd_sc_hd__clkdlybuf4s25_1
*I *1873:A I *D sky130_fd_sc_hd__and3_2
*I *2027:Q O *D sky130_fd_sc_hd__dfxtp_2
*CAP
1 *2203:A 0
2 *2297:A 0
3 *1873:A 0
4 *2027:Q 0.000227071
5 *702:24 0.000801408
6 *702:12 0.000873106
7 *702:10 0.000298769
8 *1869:A1 *702:12 1.14452e-05
9 *1869:A1 *702:24 0.000473992
10 *1869:A2 *702:24 3.60429e-05
11 *1869:B1 *702:24 0.000230726
12 *1870:A2 *702:24 0.000189857
13 *1873:C *702:24 3.20742e-05
14 *2028:CLK *702:10 4.93223e-05
15 *2210:A *702:24 2.50118e-05
16 *492:87 *702:10 0.000151907
17 *492:87 *702:12 0.000181952
18 *492:87 *702:24 3.70187e-05
19 *496:54 *702:12 0
20 *577:10 *702:12 0.000155077
21 *610:10 *702:24 0.000110382
22 *679:129 *702:10 0
23 *679:129 *702:12 0
24 *686:27 *702:24 4.96824e-05
*RES
1 *2027:Q *702:10 41.8321 
2 *702:10 *702:12 2.61 
3 *702:12 *702:24 32.11 
4 *702:24 *1873:A 23 
5 *702:12 *2297:A 38 
6 *702:10 *2203:A 38 
*END

*D_NET *703 0.00712824
*CONN
*I *1877:A I *D sky130_fd_sc_hd__and3_2
*I *2200:A I *D sky130_fd_sc_hd__dlygate4sd3_1
*I *2298:A I *D sky130_fd_sc_hd__clkdlybuf4s25_1
*I *1879:B I *D sky130_fd_sc_hd__and2_2
*I *2028:Q O *D sky130_fd_sc_hd__dfxtp_2
*CAP
1 *1877:A 0.000140535
2 *2200:A 0.000212788
3 *2298:A 0
4 *1879:B 0.000465177
5 *2028:Q 0.000107204
6 *703:29 0.00101211
7 *703:10 0.00168747
8 *703:8 0.000422973
9 *703:6 0.000247739
10 *1879:B *1879:A 4.60997e-05
11 *1879:B *704:12 0.000144979
12 *703:10 *704:10 7.23728e-05
13 *703:10 *704:12 1.97799e-05
14 *1875:A1 *703:29 7.80291e-06
15 *1875:B1 *703:29 1.23353e-05
16 *1875:C1 *703:29 0.000106302
17 *1877:B *703:10 0.000292195
18 *1883:B1 *703:29 0.000362509
19 *1889:A1 *1877:A 3.91386e-05
20 *1891:A *2200:A 0
21 *1891:C *2200:A 0
22 *2030:D *1879:B 6.74166e-05
23 *259:12 *2200:A 0
24 *259:12 *703:10 0
25 *261:12 *703:29 3.32045e-05
26 *447:18 *1879:B 0.000131847
27 *447:157 *1879:B 0.000215349
28 *492:71 *1879:B 0.00016376
29 *492:71 *703:10 0.000132311
30 *492:79 *703:29 0.0003053
31 *492:87 *703:29 0.000181919
32 *496:18 *2200:A 5.66623e-05
33 *496:18 *703:10 1.22803e-05
34 *496:22 *1877:A 2.18409e-05
35 *496:24 *1877:A 2.93845e-05
36 *496:24 *703:6 5.1358e-05
37 *499:8 *703:10 0.000169683
38 *559:31 *1879:B 0.000156403
39 *559:50 *703:10 0
*RES
1 *2028:Q *703:6 25.0507 
2 *703:6 *703:8 15 
3 *703:8 *703:10 6.13143 
4 *703:10 *1879:B 48.3571 
5 *703:10 *703:29 33.3114 
6 *703:29 *2298:A 23 
7 *703:8 *2200:A 41.3143 
8 *703:6 *1877:A 25.9207 
*END

*D_NET *704 0.00540414
*CONN
*I *2208:A I *D sky130_fd_sc_hd__dlygate4sd3_1
*I *2299:A I *D sky130_fd_sc_hd__clkdlybuf4s25_1
*I *1879:A I *D sky130_fd_sc_hd__and2_2
*I *2029:Q O *D sky130_fd_sc_hd__dfxtp_2
*CAP
1 *2208:A 0.000133572
2 *2299:A 0
3 *1879:A 0.000295787
4 *2029:Q 0.000146989
5 *704:29 0.000884131
6 *704:12 0.00144459
7 *704:10 0.000545235
8 *1879:B *1879:A 4.60997e-05
9 *1879:B *704:12 0.000144979
10 *1880:A *704:29 0.000100486
11 *1880:D *704:29 5.58003e-05
12 *1883:B1 *2208:A 0.000222785
13 *91:10 *704:29 0.000146861
14 *263:10 *2208:A 9.31593e-05
15 *447:18 *1879:A 0.000134088
16 *447:157 *1879:A 0.000239603
17 *499:12 *704:10 2.93747e-05
18 *535:106 *1879:A 8.83244e-05
19 *559:16 *1879:A 1.21859e-05
20 *559:50 *1879:A 2.64108e-05
21 *559:50 *704:10 4.63375e-05
22 *559:50 *704:12 9.22744e-05
23 *686:37 *704:29 0.000382909
24 *703:10 *704:10 7.23728e-05
25 *703:10 *704:12 1.97799e-05
*RES
1 *2029:Q *704:10 40.8793 
2 *704:10 *704:12 5.075 
3 *704:12 *1879:A 44.1314 
4 *704:12 *704:29 31.5093 
5 *704:29 *2299:A 23 
6 *704:10 *2208:A 41.1486 
*END

*D_NET *705 0.00694762
*CONN
*I *1759:A_N I *D sky130_fd_sc_hd__nand3b_2
*I *2239:A I *D sky130_fd_sc_hd__dlygate4sd3_1
*I *1786:A2 I *D sky130_fd_sc_hd__o21a_2
*I *1606:A I *D sky130_fd_sc_hd__inv_2
*I *1785:A2 I *D sky130_fd_sc_hd__o21a_2
*I *1710:A1 I *D sky130_fd_sc_hd__o21ba_2
*I *1711:A1 I *D sky130_fd_sc_hd__o21ba_2
*I *2063:Q O *D sky130_fd_sc_hd__dfrtp_2
*CAP
1 *1759:A_N 0.000243675
2 *2239:A 0
3 *1786:A2 0
4 *1606:A 0
5 *1785:A2 0.000118551
6 *1710:A1 0
7 *1711:A1 0
8 *2063:Q 0
9 *705:67 0.000356666
10 *705:57 0.000736972
11 *705:30 0.000167015
12 *705:22 0.000489617
13 *705:16 0.000582946
14 *705:12 0.000680454
15 *705:10 0.000315198
16 *705:4 0.000400517
17 *1759:A_N *1613:A 8.40645e-05
18 *1759:A_N *1759:C 5.47983e-06
19 *1759:A_N *733:16 0.000313244
20 *1785:A2 *1708:A_N 5.3304e-05
21 *1785:A2 *738:29 9.09644e-05
22 *705:10 *733:16 1.56762e-05
23 *705:12 *738:39 0
24 *705:16 *1785:B1 1.58805e-05
25 *705:16 *738:29 3.47781e-05
26 *705:22 *738:29 5.73066e-05
27 *705:57 *1786:B1 2.93845e-05
28 *705:57 *738:39 7.73099e-05
29 *705:67 *733:20 8.50457e-05
30 *705:67 *739:32 1.00084e-05
31 *1710:A2 *705:22 9.75779e-05
32 *1710:A2 *705:30 5.50106e-05
33 *1710:B1_N *705:30 4.91169e-05
34 *1787:A *705:22 2.88979e-05
35 *1787:B *705:22 4.66047e-05
36 *1952:A *705:12 2.11066e-05
37 *2063:RESET_B *705:10 5.3304e-05
38 *190:10 *705:10 0.000160182
39 *190:10 *705:12 0.000140958
40 *254:14 *705:22 0.000111933
41 *299:8 *705:30 0
42 *322:10 *705:67 6.85344e-06
43 *329:10 *1759:A_N 0.000221992
44 *329:12 *705:12 0
45 *401:29 *705:57 5.20427e-05
46 *401:29 *705:67 3.23857e-06
47 *402:6 *705:57 1.14762e-05
48 *402:6 *705:67 0.000233367
49 *404:22 *705:30 1.74874e-06
50 *413:41 *705:10 0.000135557
51 *453:10 *705:12 1.85961e-05
52 *453:10 *705:16 5.56306e-05
53 *453:10 *705:57 0.000180224
54 *454:8 *705:10 6.02277e-06
55 *454:8 *705:12 7.70231e-05
56 *454:8 *705:16 2.12001e-05
57 *666:16 *705:22 4.17736e-05
58 *666:16 *705:30 0.000152127
59 *677:27 *705:16 0
*RES
1 *2063:Q *705:4 23 
2 *705:4 *705:10 18.3557 
3 *705:10 *705:12 3.66643 
4 *705:12 *705:16 17.61 
5 *705:16 *705:22 6.50429 
6 *705:22 *705:30 33.5836 
7 *705:30 *1711:A1 23 
8 *705:22 *1710:A1 23 
9 *705:16 *1785:A2 25.0507 
10 *705:12 *705:57 21.0486 
11 *705:57 *705:67 35.8829 
12 *705:67 *1606:A 23 
13 *705:57 *1786:A2 23 
14 *705:10 *2239:A 38 
15 *705:4 *1759:A_N 29.38 
*END

*D_NET *706 0.00507121
*CONN
*I *1742:A_N I *D sky130_fd_sc_hd__nand3b_2
*I *2196:A I *D sky130_fd_sc_hd__dlygate4sd3_1
*I *1715:A_N I *D sky130_fd_sc_hd__and3b_2
*I *1714:A_N I *D sky130_fd_sc_hd__nand2b_2
*I *2062:Q O *D sky130_fd_sc_hd__dfrtp_2
*CAP
1 *1742:A_N 0.000196562
2 *2196:A 6.44792e-05
3 *1715:A_N 0
4 *1714:A_N 0.00033529
5 *2062:Q 0.000127533
6 *706:34 0.000442223
7 *706:12 0.00100319
8 *706:6 0.000976617
9 *1714:A_N *1714:B 0
10 *1714:A_N *717:8 0.000110258
11 *1742:A_N *1742:B 9.45591e-05
12 *2196:A *1717:B 7.15126e-05
13 *706:12 *717:8 2.45092e-05
14 *706:12 *717:27 0.000204165
15 *1985:A *1714:A_N 0
16 *25:8 *1742:A_N 9.84794e-05
17 *54:12 *2196:A 7.15126e-05
18 *407:12 *706:12 0
19 *421:42 *1742:A_N 0.00021673
20 *421:42 *706:34 0.000488373
21 *422:8 *706:12 0.000116118
22 *694:8 *1742:A_N 0.000140259
23 *694:16 *1714:A_N 1.00286e-05
24 *694:16 *1742:A_N 5.86432e-05
25 *694:16 *706:12 4.92644e-05
26 *694:16 *706:34 0.000161422
27 *694:27 *1742:A_N 9.48381e-06
*RES
1 *2062:Q *706:6 24.5743 
2 *706:6 *706:12 26.2479 
3 *706:12 *1714:A_N 44.525 
4 *706:12 *1715:A_N 38 
5 *706:6 *706:34 21.4836 
6 *706:34 *2196:A 39.5743 
7 *706:34 *1742:A_N 43.9657 
*END

*D_NET *707 0.00142977
*CONN
*I *1605:A I *D sky130_fd_sc_hd__inv_2
*I *1842:A1 I *D sky130_fd_sc_hd__a21oi_2
*I *1633:A I *D sky130_fd_sc_hd__and3_2
*I *2082:Q O *D sky130_fd_sc_hd__dfstp_2
*CAP
1 *1605:A 7.61556e-05
2 *1842:A1 1.67991e-05
3 *1633:A 0
4 *2082:Q 8.15719e-05
5 *707:21 0.000279324
6 *707:14 9.89221e-05
7 *707:6 0.000366864
8 *707:14 *1612:A 1.12487e-05
9 *707:14 *1633:C 5.3304e-05
10 *707:14 *718:10 5.10669e-05
11 *1736:A2 *707:14 1.01436e-05
12 *1736:B1 *707:14 5.50049e-05
13 *1842:B1 *707:21 5.3304e-05
14 *132:10 *1605:A 0.000127821
15 *132:10 *707:21 1.32314e-05
16 *692:90 *707:14 0.000135007
*RES
1 *2082:Q *707:6 24.0979 
2 *707:6 *707:14 32.5271 
3 *707:14 *1633:A 23 
4 *707:6 *707:21 2.52714 
5 *707:21 *1842:A1 23.4971 
6 *707:21 *1605:A 25.0714 
*END

*D_NET *708 0.00331153
*CONN
*I *1798:A1 I *D sky130_fd_sc_hd__a21o_2
*I *1621:A2 I *D sky130_fd_sc_hd__a31o_2
*I *1614:A I *D sky130_fd_sc_hd__inv_2
*I *2102:Q O *D sky130_fd_sc_hd__dfstp_2
*CAP
1 *1798:A1 0
2 *1621:A2 0.000327638
3 *1614:A 0
4 *2102:Q 0.000624178
5 *708:16 0.000498535
6 *708:10 0.000795075
7 *1621:A2 *1621:A1 9.58714e-05
8 *1621:A2 *1621:B1 7.4416e-05
9 *1621:A2 *1722:A1 7.59794e-05
10 *1621:A2 *1841:A 0
11 *1621:A2 *734:12 0.000228909
12 *708:10 *734:33 6.07611e-06
13 *708:16 *1620:A 2.60152e-05
14 *708:16 *734:12 9.6103e-05
15 *708:16 *734:33 0.000135359
16 *1722:A2 *1621:A2 2.79543e-05
17 *1722:B1 *1621:A2 0.000146493
18 *1722:B1 *708:16 5.67058e-05
19 *166:8 *708:10 0
20 *331:42 *1621:A2 1.66896e-05
21 *450:33 *708:16 7.42621e-05
22 *539:18 *708:10 5.27215e-06
*RES
1 *2102:Q *708:10 46.5964 
2 *708:10 *708:16 19.6607 
3 *708:16 *1614:A 23 
4 *708:16 *1621:A2 31.2857 
5 *708:10 *1798:A1 38 
*END

*D_NET *709 0.00197561
*CONN
*I *2185:A I *D sky130_fd_sc_hd__dlygate4sd3_1
*I *1626:A I *D sky130_fd_sc_hd__and3_2
*I *2084:Q O *D sky130_fd_sc_hd__dfrtp_2
*CAP
1 *2185:A 0.000178128
2 *1626:A 0.000430044
3 *2084:Q 0
4 *709:6 0.000608172
5 *1626:A *727:16 0
6 *2185:A *1616:A 0
7 *1784:A *2185:A 0
8 *1788:C1 *1626:A 0.000192342
9 *212:10 *1626:A 5.58003e-05
10 *294:10 *2185:A 0.000117159
11 *332:23 *1626:A 0
12 *332:23 *2185:A 0
13 *451:14 *1626:A 0.000285603
14 *451:14 *2185:A 5.33597e-05
15 *551:37 *2185:A 5.50049e-05
*RES
1 *2084:Q *709:6 38 
2 *709:6 *1626:A 47.0936 
3 *709:6 *2185:A 42.2879 
*END

*D_NET *710 0.00340192
*CONN
*I *2178:A I *D sky130_fd_sc_hd__dlygate4sd3_1
*I *1636:A I *D sky130_fd_sc_hd__and3_2
*I *2083:Q O *D sky130_fd_sc_hd__dfrtp_2
*CAP
1 *2178:A 0.000376694
2 *1636:A 0
3 *2083:Q 0.000139452
4 *710:14 0.000765689
5 *710:8 0.00128184
6 *710:14 *719:60 2.31581e-05
7 mem_addr[11] *710:14 9.48381e-06
8 mem_addr[17] *710:14 7.13284e-05
9 mem_addr[21] *710:14 7.07631e-05
10 *26:8 *710:14 0.000403962
11 *31:10 *710:14 0
12 *34:12 *710:14 0.000124253
13 *38:10 *2178:A 0
14 *41:12 *2178:A 0
15 *43:10 *2178:A 0.000135304
16 *691:36 *710:14 0
17 *691:49 *2178:A 0
*RES
1 *2083:Q *710:8 39.5743 
2 *710:8 *710:14 29.5829 
3 *710:14 *1636:A 23 
4 *710:8 *2178:A 45.105 
*END

*D_NET *711 0.00386419
*CONN
*I *1799:A1 I *D sky130_fd_sc_hd__a21o_2
*I *1623:A3 I *D sky130_fd_sc_hd__a31o_2
*I *1616:A I *D sky130_fd_sc_hd__inv_2
*I *2101:Q O *D sky130_fd_sc_hd__dfstp_2
*CAP
1 *1799:A1 0
2 *1623:A3 1.70117e-05
3 *1616:A 0.000521215
4 *2101:Q 0.000231458
5 *711:20 0.00110244
6 *711:10 0.000795674
7 *1623:A3 *1615:A 2.32004e-05
8 *1623:A3 *734:71 1.24376e-05
9 *711:10 *774:8 0
10 *711:20 *727:48 0.000138718
11 *711:20 *727:59 0
12 *711:20 *777:8 8.92738e-05
13 *2185:A *1616:A 0
14 *211:8 *1616:A 0
15 *294:10 *1616:A 1.14452e-05
16 *331:10 *1616:A 0
17 *335:8 *1623:A3 5.50049e-05
18 *337:8 *711:20 0.000112693
19 *341:27 *711:20 7.75329e-06
20 *341:31 *711:20 0.000393287
21 *341:45 *711:10 6.07611e-06
22 *341:45 *711:20 2.96154e-05
23 *535:209 *711:10 0
24 *539:24 *711:10 0
25 *539:63 *711:20 3.46673e-05
26 *551:37 *1616:A 0.000227208
27 *583:6 *1616:A 5.50106e-05
28 *681:69 *1616:A 0
*RES
1 *2101:Q *711:10 41.8321 
2 *711:10 *711:20 41.7864 
3 *711:20 *1616:A 46.41 
4 *711:20 *1623:A3 38.6214 
5 *711:10 *1799:A1 38 
*END

*D_NET *712 0.00449102
*CONN
*I *1747:C I *D sky130_fd_sc_hd__nand3b_2
*I *2248:A I *D sky130_fd_sc_hd__dlygate4sd3_1
*I *1744:B I *D sky130_fd_sc_hd__or2_2
*I *1761:B I *D sky130_fd_sc_hd__or3b_2
*I *1745:B I *D sky130_fd_sc_hd__or3b_2
*I *1750:C_N I *D sky130_fd_sc_hd__or3b_2
*I *2051:Q O *D sky130_fd_sc_hd__dfrtp_2
*CAP
1 *1747:C 0.000134557
2 *2248:A 5.96246e-05
3 *1744:B 0.000127262
4 *1761:B 0
5 *1745:B 0
6 *1750:C_N 0.000222601
7 *2051:Q 0
8 *712:42 0.000415449
9 *712:36 0.000413954
10 *712:25 0.00013029
11 *712:12 0.000401969
12 *712:4 0.000249778
13 *1744:B *713:86 0.00031544
14 *1747:C *1747:B 2.7142e-05
15 *1747:C *714:36 3.44036e-05
16 *1750:C_N *1750:A 9.67842e-05
17 *1750:C_N *1750:B 0.000254571
18 *1750:C_N *713:16 4.94517e-05
19 *2248:A *1746:B 5.50106e-05
20 *712:12 *713:16 2.24608e-05
21 *712:25 *713:14 4.42688e-05
22 *712:25 *713:16 6.01205e-05
23 *712:36 *713:12 1.22803e-05
24 *712:36 *713:14 7.28526e-05
25 *712:42 *713:86 3.70187e-05
26 *712:42 *731:122 0
27 *2051:RESET_B *1747:C 9.84794e-05
28 *2051:RESET_B *712:12 4.5051e-05
29 *433:10 *1750:C_N 3.3746e-05
30 *436:12 *712:25 7.276e-05
31 *436:12 *712:36 7.90568e-05
32 *436:20 *2248:A 7.44354e-05
33 *436:20 *712:42 5.12254e-05
34 *436:33 *1744:B 0.000100283
35 *436:33 *712:42 3.28979e-05
36 *437:23 *712:42 8.26672e-05
37 *442:10 *712:42 3.39231e-05
38 *446:8 *1744:B 0
39 *649:8 *1750:C_N 0.000450491
40 *649:8 *712:25 6.15861e-05
41 *653:10 *712:42 3.71251e-05
*RES
1 *2051:Q *712:4 23 
2 *712:4 *712:12 17.0404 
3 *712:12 *1750:C_N 46.1096 
4 *712:12 *712:25 2.78607 
5 *712:25 *1745:B 38 
6 *712:25 *712:36 17.2579 
7 *712:36 *712:42 21.1936 
8 *712:42 *1761:B 38 
9 *712:42 *1744:B 42.3707 
10 *712:36 *2248:A 24.5743 
11 *712:4 *1747:C 26.045 
*END

*D_NET *713 0.00666302
*CONN
*I *1744:A I *D sky130_fd_sc_hd__or2_2
*I *1761:C_N I *D sky130_fd_sc_hd__or3b_2
*I *1763:A1 I *D sky130_fd_sc_hd__a22o_2
*I *1746:B I *D sky130_fd_sc_hd__nand2b_2
*I *1745:A I *D sky130_fd_sc_hd__or3b_2
*I *1747:B I *D sky130_fd_sc_hd__nand3b_2
*I *1750:B I *D sky130_fd_sc_hd__or3b_2
*I *2052:Q O *D sky130_fd_sc_hd__dfrtp_2
*CAP
1 *1744:A 0
2 *1761:C_N 0
3 *1763:A1 0.000102614
4 *1746:B 0.000154562
5 *1745:A 0
6 *1747:B 0.000232932
7 *1750:B 0.000507051
8 *2052:Q 0.000136009
9 *713:86 0.00015013
10 *713:64 0.000210131
11 *713:60 0.000452979
12 *713:16 0.00088927
13 *713:14 0.000235893
14 *713:12 0.000447378
15 *713:10 0.00053755
16 *1746:B *1746:A_N 5.56356e-05
17 *1747:B *714:36 0.00010981
18 *1750:B *1750:A 9.50174e-05
19 *1750:B *714:12 3.98859e-05
20 *1750:B *714:36 0.000104852
21 *713:12 *714:53 9.48381e-06
22 *713:12 *714:70 7.4997e-05
23 *713:14 *714:40 0
24 *713:14 *714:53 6.12504e-05
25 *713:16 *714:36 1.83667e-05
26 *713:16 *714:40 0
27 *713:60 *1761:A 0.000311554
28 *1744:B *713:86 0.00031544
29 *1747:C *1747:B 2.7142e-05
30 *1750:C_N *1750:B 0.000254571
31 *1750:C_N *713:16 4.94517e-05
32 *1763:A2 *1763:A1 0.000134641
33 *1763:A2 *713:60 1.03836e-05
34 *1763:A2 *713:64 4.75206e-05
35 *1763:B2 *1763:A1 3.34831e-05
36 *1763:B2 *713:64 0
37 *2051:RESET_B *1747:B 4.5051e-05
38 *2248:A *1746:B 5.50106e-05
39 *178:8 *713:16 7.75329e-06
40 *179:10 *713:86 0.000138629
41 *286:10 *1763:A1 5.41288e-05
42 *427:30 *713:10 0
43 *429:10 *1746:B 3.22051e-05
44 *433:10 *1750:B 0
45 *436:12 *713:12 0
46 *436:20 *1746:B 5.50123e-05
47 *436:33 *713:10 0
48 *436:33 *713:12 0
49 *436:33 *713:86 5.3304e-05
50 *442:10 *713:86 0.00010858
51 *444:16 *713:10 0
52 *446:8 *713:10 2.79004e-05
53 *550:10 *713:86 2.64616e-05
54 *712:12 *713:16 2.24608e-05
55 *712:25 *713:14 4.42688e-05
56 *712:25 *713:16 6.01205e-05
57 *712:36 *713:12 1.22803e-05
58 *712:36 *713:14 7.28526e-05
59 *712:42 *713:86 3.70187e-05
*RES
1 *2052:Q *713:10 40.175 
2 *713:10 *713:12 3.66643 
3 *713:12 *713:14 2.96214 
4 *713:14 *713:16 3.31429 
5 *713:16 *1750:B 48.0879 
6 *713:16 *1747:B 42.4743 
7 *713:14 *1745:A 38 
8 *713:12 *1746:B 41.48 
9 *713:10 *713:60 18.9564 
10 *713:60 *713:64 2.07143 
11 *713:64 *1763:A1 26.0243 
12 *713:64 *1761:C_N 23 
13 *713:60 *713:86 35.3443 
14 *713:86 *1744:A 23 
*END

*D_NET *714 0.00510176
*CONN
*I *1747:A_N I *D sky130_fd_sc_hd__nand3b_2
*I *1770:B2 I *D sky130_fd_sc_hd__o2bb2a_2
*I *1761:A I *D sky130_fd_sc_hd__or3b_2
*I *1746:A_N I *D sky130_fd_sc_hd__nand2b_2
*I *1745:C_N I *D sky130_fd_sc_hd__or3b_2
*I *2244:A I *D sky130_fd_sc_hd__dlygate4sd3_1
*I *1750:A I *D sky130_fd_sc_hd__or3b_2
*I *2053:Q O *D sky130_fd_sc_hd__dfrtp_2
*CAP
1 *1747:A_N 0
2 *1770:B2 5.07966e-05
3 *1761:A 0.000130662
4 *1746:A_N 1.87628e-05
5 *1745:C_N 0
6 *2244:A 0
7 *1750:A 0.000156184
8 *2053:Q 0.000117612
9 *714:70 0.000436778
10 *714:53 0.000455897
11 *714:40 0.000364912
12 *714:36 0.000433076
13 *714:12 0.000242389
14 *714:8 0.000453797
15 *1746:B *1746:A_N 5.56356e-05
16 *1747:B *714:36 0.00010981
17 *1747:C *714:36 3.44036e-05
18 *1750:B *1750:A 9.50174e-05
19 *1750:B *714:12 3.98859e-05
20 *1750:B *714:36 0.000104852
21 *1750:C_N *1750:A 9.67842e-05
22 *1756:A *714:36 0
23 *1763:A2 *1761:A 5.12254e-05
24 *1770:A1_N *1761:A 0.000140297
25 *1770:A1_N *1770:B2 3.98254e-05
26 *2051:RESET_B *714:36 5.3304e-05
27 *178:8 *714:36 0.000138718
28 *178:8 *714:40 1.00084e-05
29 *436:20 *1746:A_N 2.93431e-05
30 *437:6 *1761:A 9.11078e-05
31 *438:10 *714:8 3.71228e-05
32 *444:16 *714:70 3.83778e-05
33 *690:30 *1750:A 0.000479335
34 *690:30 *714:12 0.000110184
35 *690:30 *714:36 1.00084e-05
36 *713:12 *714:53 9.48381e-06
37 *713:12 *714:70 7.4997e-05
38 *713:14 *714:40 0
39 *713:14 *714:53 6.12504e-05
40 *713:16 *714:36 1.83667e-05
41 *713:16 *714:40 0
42 *713:60 *1761:A 0.000311554
*RES
1 *2053:Q *714:8 39.5743 
2 *714:8 *714:12 16.9057 
3 *714:12 *1750:A 28.3857 
4 *714:12 *2244:A 23 
5 *714:8 *714:36 21.0279 
6 *714:36 *714:40 17.61 
7 *714:40 *1745:C_N 38 
8 *714:40 *714:53 4.08071 
9 *714:53 *1746:A_N 38.6214 
10 *714:53 *714:70 18.7286 
11 *714:70 *1761:A 27.4329 
12 *714:70 *1770:B2 24.1186 
13 *714:36 *1747:A_N 23 
*END

*D_NET *715 0.00109263
*CONN
*I *2237:A I *D sky130_fd_sc_hd__dlygate4sd3_1
*I *1753:A_N I *D sky130_fd_sc_hd__nand2b_2
*I *2100:Q O *D sky130_fd_sc_hd__dfrtp_2
*CAP
1 *2237:A 0.000145962
2 *1753:A_N 0
3 *2100:Q 0
4 *715:10 0.000113899
5 *715:4 0.000259862
6 *715:10 *731:122 0.000220511
7 *641:10 *2237:A 1.84831e-05
8 *701:24 *2237:A 0.00033391
*RES
1 *2100:Q *715:4 23 
2 *715:4 *715:10 32.9621 
3 *715:10 *1753:A_N 23 
4 *715:4 *2237:A 26.9564 
*END

*D_NET *716 0.00600475
*CONN
*I *1741:A2 I *D sky130_fd_sc_hd__a22o_2
*I *1734:B I *D sky130_fd_sc_hd__nand2_2
*I *1843:B1_N I *D sky130_fd_sc_hd__a21boi_2
*I *1796:C I *D sky130_fd_sc_hd__and3_2
*I *2095:Q O *D sky130_fd_sc_hd__dfrtp_2
*CAP
1 *1741:A2 0
2 *1734:B 0
3 *1843:B1_N 4.01155e-05
4 *1796:C 0
5 *2095:Q 9.87346e-05
6 *716:53 0.000342712
7 *716:38 0.000269782
8 *716:20 0.000386097
9 *716:10 0.000583131
10 *716:8 0.000569371
11 *716:6 0.000584117
12 *716:53 *721:14 5.50106e-05
13 *716:53 *721:25 0.000162557
14 *716:53 *729:10 0.000139647
15 *716:53 *729:36 0.00029298
16 *1734:A *716:38 0.000234938
17 *1743:A3 *716:53 0.000138708
18 *1755:B1 *716:20 6.17437e-06
19 *1797:B1 *716:20 1.21972e-05
20 *2094:CLK *716:53 0.000192022
21 *13:10 *716:20 0
22 *13:10 *716:38 1.44692e-05
23 *131:10 *716:6 0.000139352
24 *131:10 *716:8 0.000178517
25 *131:10 *716:10 5.3304e-05
26 *423:26 *716:20 3.3123e-05
27 *424:10 *716:53 9.61128e-05
28 *432:10 *716:20 6.25829e-05
29 *444:8 *716:20 3.26321e-05
30 *552:62 *716:53 0.000320642
31 *556:14 *716:38 0.00039032
32 *556:20 *716:38 6.16531e-05
33 *556:41 *716:20 8.62876e-05
34 *692:78 *716:38 0.000427464
*RES
1 *2095:Q *716:6 24.5743 
2 *716:6 *716:8 2.05071 
3 *716:8 *716:10 2.05071 
4 *716:10 *716:20 36.1107 
5 *716:20 *1796:C 23 
6 *716:10 *1843:B1_N 23.8493 
7 *716:8 *716:38 39.3007 
8 *716:38 *1734:B 23 
9 *716:6 *716:53 40.9371 
10 *716:53 *1741:A2 23 
*END

*D_NET *717 0.0026105
*CONN
*I *2213:A I *D sky130_fd_sc_hd__dlygate4sd3_1
*I *1738:A I *D sky130_fd_sc_hd__nor2_2
*I *1715:C I *D sky130_fd_sc_hd__and3b_2
*I *2096:Q O *D sky130_fd_sc_hd__dfrtp_2
*CAP
1 *2213:A 0.000218486
2 *1738:A 0
3 *1715:C 5.19448e-05
4 *2096:Q 0.00011992
5 *717:27 0.000161031
6 *717:21 0.000427433
7 *717:10 9.98604e-05
8 *717:8 0.00011992
9 *1714:A_N *717:8 0.000110258
10 *615:6 *1715:C 7.58384e-05
11 *615:6 *2213:A 0.000186038
12 *615:6 *717:21 0.000138859
13 *694:16 *1715:C 0.000149534
14 *694:16 *2213:A 2.193e-05
15 *694:16 *717:21 6.86773e-05
16 *694:16 *717:27 0.000432095
17 *706:12 *717:8 2.45092e-05
18 *706:12 *717:27 0.000204165
*RES
1 *2096:Q *717:8 39.9057 
2 *717:8 *717:10 15 
3 *717:10 *1715:C 25.118 
4 *717:10 *717:21 1.57429 
5 *717:21 *717:27 35.7793 
6 *717:27 *1738:A 23 
7 *717:21 *2213:A 27.9093 
*END

*D_NET *718 0.00329452
*CONN
*I *1633:C I *D sky130_fd_sc_hd__and3_2
*I *1612:A I *D sky130_fd_sc_hd__inv_2
*I *2097:Q O *D sky130_fd_sc_hd__dfrtp_2
*CAP
1 *1633:C 0.000204202
2 *1612:A 0.000328662
3 *2097:Q 0.000639804
4 *718:10 0.00117267
5 *1736:A2 *1612:A 0.000240142
6 *1736:A2 *1633:C 5.3304e-05
7 *1736:B1 *1633:C 5.62507e-05
8 *13:10 *1612:A 0
9 *13:10 *718:10 0
10 *13:14 *718:10 2.66127e-05
11 *289:8 *1612:A 0
12 *289:8 *718:10 0
13 *420:10 *1612:A 1.35999e-05
14 *692:90 *718:10 0.000365724
15 *694:67 *1612:A 7.79323e-05
16 *707:14 *1612:A 1.12487e-05
17 *707:14 *1633:C 5.3304e-05
18 *707:14 *718:10 5.10669e-05
*RES
1 *2097:Q *718:10 49.2686 
2 *718:10 *1612:A 44.6907 
3 *718:10 *1633:C 40.5271 
*END

*D_NET *719 0.00704881
*CONN
*I *1636:B I *D sky130_fd_sc_hd__and3_2
*I *1794:A1 I *D sky130_fd_sc_hd__a211o_2
*I *1741:B1 I *D sky130_fd_sc_hd__a22o_2
*I *1742:B I *D sky130_fd_sc_hd__nand3b_2
*I *1635:A I *D sky130_fd_sc_hd__nand2_2
*I *1717:B I *D sky130_fd_sc_hd__nand3_2
*I *2098:Q O *D sky130_fd_sc_hd__dfrtp_2
*CAP
1 *1636:B 0
2 *1794:A1 0
3 *1741:B1 0
4 *1742:B 0.000392927
5 *1635:A 2.77391e-05
6 *1717:B 0.000411119
7 *2098:Q 0.000408079
8 *719:74 0.000248088
9 *719:66 0.00049981
10 *719:60 0.000405777
11 *719:56 0.000301511
12 *719:14 0.000568447
13 *719:10 0.00078314
14 *1742:B *1742:C 4.07902e-05
15 *719:10 *720:24 0.000111852
16 *719:14 *720:24 0.000238194
17 *719:56 *720:24 0
18 *719:74 *721:25 7.54381e-05
19 *719:74 *721:36 3.28708e-05
20 *1742:A_N *1742:B 9.45591e-05
21 *1743:B1 *719:66 5.67058e-05
22 *1793:A *1717:B 5.54148e-05
23 *1794:B1 *719:74 8.16356e-05
24 *1987:A *719:66 0.00014196
25 *2098:CLK *719:74 6.32895e-05
26 *2196:A *1717:B 7.15126e-05
27 *25:8 *1742:B 0.000313244
28 *54:12 *1635:A 2.30292e-05
29 *54:12 *1717:B 5.29473e-05
30 *348:12 *719:10 0.000103949
31 *348:12 *719:14 0.000243596
32 *348:12 *719:56 0
33 *348:20 *719:66 0.000215057
34 *349:6 *719:66 0.000516489
35 *425:14 *1742:B 0
36 *455:12 *1717:B 0.00010018
37 *455:12 *719:74 0.000166522
38 *556:88 *1717:B 5.50049e-05
39 *595:10 *1717:B 6.7063e-05
40 *701:72 *719:56 5.77061e-05
41 *710:14 *719:60 2.31581e-05
*RES
1 *2098:Q *719:10 42.0807 
2 *719:10 *719:14 18.3143 
3 *719:14 *1717:B 31.2857 
4 *719:14 *1635:A 23.6214 
5 *719:10 *1742:B 45.9543 
6 *2098:Q *719:56 40.9621 
7 *719:56 *719:60 17.0507 
8 *719:60 *719:66 8.63786 
9 *719:66 *719:74 35.2614 
10 *719:74 *1741:B1 23 
11 *719:66 *1794:A1 23 
12 *719:60 *1636:B 23 
*END

*D_NET *720 0.00261248
*CONN
*I *2226:A I *D sky130_fd_sc_hd__dlygate4sd3_1
*I *1635:B I *D sky130_fd_sc_hd__nand2_2
*I *1636:C I *D sky130_fd_sc_hd__and3_2
*I *2092:Q O *D sky130_fd_sc_hd__dfrtp_2
*CAP
1 *2226:A 2.92495e-05
2 *1635:B 0
3 *1636:C 0
4 *2092:Q 0.00025406
5 *720:24 0.000385774
6 *720:14 0.000557641
7 *720:12 0.000201116
8 *720:10 0.00025406
9 mem_addr[8] *720:10 4.89774e-05
10 *54:12 *2226:A 2.31687e-05
11 *54:12 *720:14 0.000159634
12 *54:12 *720:24 2.93335e-05
13 *348:12 *720:24 0.0001529
14 *629:8 *720:24 0
15 *691:36 *720:10 0.000166522
16 *701:57 *720:24 0
17 *701:72 *720:24 0
18 *719:10 *720:24 0.000111852
19 *719:14 *720:24 0.000238194
20 *719:56 *720:24 0
*RES
1 *2092:Q *720:10 42.3086 
2 *720:10 *720:12 15 
3 *720:12 *720:14 3.48 
4 *720:14 *720:24 38.7829 
5 *720:24 *1636:C 23 
6 *720:14 *1635:B 23 
7 *720:12 *2226:A 23.6214 
*END

*D_NET *721 0.00354565
*CONN
*I *1742:C I *D sky130_fd_sc_hd__nand3b_2
*I *1717:C I *D sky130_fd_sc_hd__nand3_2
*I *1741:B2 I *D sky130_fd_sc_hd__a22o_2
*I *2214:A I *D sky130_fd_sc_hd__dlygate4sd3_1
*I *2093:Q O *D sky130_fd_sc_hd__dfrtp_2
*CAP
1 *1742:C 0.000188897
2 *1717:C 6.62929e-05
3 *1741:B2 0
4 *2214:A 0
5 *2093:Q 0.000437152
6 *721:36 0.000405222
7 *721:25 0.000247053
8 *721:14 0.000112001
9 *721:10 0.000452133
10 *721:25 *729:36 4.4443e-05
11 *1742:B *1742:C 4.07902e-05
12 *1794:B1 *1717:C 8.16253e-05
13 *1794:B1 *721:36 0.000134687
14 *2094:CLK *721:14 5.50106e-05
15 *2094:CLK *721:25 0.000263967
16 *2098:CLK *721:25 1.6318e-05
17 *2098:CLK *721:36 1.01436e-05
18 *425:14 *1742:C 2.45549e-06
19 *425:14 *721:10 0.000153145
20 *426:43 *721:10 5.50049e-05
21 *537:10 *721:36 6.25829e-05
22 *537:12 *721:10 0
23 *537:12 *721:36 0.000194309
24 *537:14 *1717:C 0.000168744
25 *537:14 *721:36 2.77955e-05
26 *616:10 *721:10 0
27 *716:53 *721:14 5.50106e-05
28 *716:53 *721:25 0.000162557
29 *719:74 *721:25 7.54381e-05
30 *719:74 *721:36 3.28708e-05
*RES
1 *2093:Q *721:10 45.9957 
2 *721:10 *721:14 15.6214 
3 *721:14 *2214:A 23 
4 *721:14 *721:25 4.36036 
5 *721:25 *1741:B2 23 
6 *721:25 *721:36 19.0496 
7 *721:36 *1717:C 40.2579 
8 *721:36 *1742:C 41.0243 
*END

*D_NET *722 0.00218615
*CONN
*I *2216:A I *D sky130_fd_sc_hd__dlygate4sd3_1
*I *1715:B I *D sky130_fd_sc_hd__and3b_2
*I *1714:B I *D sky130_fd_sc_hd__nand2b_2
*I *2054:Q O *D sky130_fd_sc_hd__dfrtp_2
*CAP
1 *2216:A 5.92316e-05
2 *1715:B 4.61395e-05
3 *1714:B 0.000322324
4 *2054:Q 0.000126552
5 *722:12 0.000448486
6 *722:10 0.000265805
7 *1714:A_N *1714:B 0
8 *1740:A2 *2216:A 7.64944e-05
9 *223:10 *1714:B 0.000193073
10 *406:10 *1714:B 5.90497e-05
11 *407:12 *1714:B 1.13812e-05
12 *407:12 *722:10 0.000156141
13 *407:12 *722:12 0.000128654
14 *421:25 *722:10 1.84917e-05
15 *422:8 *722:10 4.21913e-05
16 *422:8 *722:12 1.65403e-05
17 *615:6 *1715:B 2.95526e-05
18 *692:10 *2216:A 0.000186041
*RES
1 *2054:Q *722:10 40.8793 
2 *722:10 *722:12 1.90571 
3 *722:12 *1714:B 44.4836 
4 *722:12 *1715:B 38.6214 
5 *722:10 *2216:A 40.0507 
*END

*D_NET *723 0.00492423
*CONN
*I *1706:C I *D sky130_fd_sc_hd__and4b_2
*I *1785:B1 I *D sky130_fd_sc_hd__o21a_2
*I *1732:B1 I *D sky130_fd_sc_hd__o21a_2
*I *2057:Q O *D sky130_fd_sc_hd__dfrtp_2
*CAP
1 *1706:C 0.000137747
2 *1785:B1 0.00018855
3 *1732:B1 0.000346262
4 *2057:Q 0.000916819
5 *723:19 0.000471533
6 *723:8 0.00140832
7 *1706:C *733:36 6.70361e-05
8 *1732:B1 *724:8 1.09917e-05
9 *1785:B1 *733:36 4.11461e-05
10 *1785:B1 *738:10 1.00203e-05
11 *1785:B1 *738:29 5.91319e-05
12 *1785:B1 *739:10 0.000138727
13 *723:8 *1731:A1 2.92911e-06
14 *723:19 *724:8 6.00824e-05
15 *2057:CLK *723:8 5.45541e-05
16 *2057:D *723:8 3.00511e-05
17 *291:18 *1732:B1 6.51997e-06
18 *329:12 *1732:B1 0.000109335
19 *329:12 *1785:B1 1.06805e-05
20 *329:12 *723:19 0.000295041
21 *415:33 *1732:B1 0
22 *418:10 *1732:B1 0.00029147
23 *418:10 *723:8 5.3304e-05
24 *418:22 *1732:B1 0.000135218
25 *478:10 *1732:B1 5.71002e-06
26 *478:22 *723:8 5.7175e-05
27 *479:8 *1732:B1 0
28 *705:16 *1785:B1 1.58805e-05
*RES
1 *2057:Q *723:8 49.5793 
2 *723:8 *1732:B1 44.8357 
3 *723:8 *723:19 4.01857 
4 *723:19 *1785:B1 42.7643 
5 *723:19 *1706:C 39.5743 
*END

*D_NET *724 0.00342164
*CONN
*I *1729:B1 I *D sky130_fd_sc_hd__o21a_2
*I *1786:B1 I *D sky130_fd_sc_hd__o21a_2
*I *1708:C I *D sky130_fd_sc_hd__and4b_2
*I *2058:Q O *D sky130_fd_sc_hd__dfrtp_2
*CAP
1 *1729:B1 5.26467e-05
2 *1786:B1 0.000111456
3 *1708:C 7.95557e-05
4 *2058:Q 0.000235721
5 *724:16 0.000388166
6 *724:12 0.000436778
7 *724:8 0.000422698
8 *1708:C *1708:D 5.3304e-05
9 *1708:C *739:26 0.000135037
10 *1786:B1 *733:20 6.07929e-05
11 *1786:B1 *738:39 5.50106e-05
12 *724:8 *738:10 2.35118e-06
13 *1732:B1 *724:8 1.09917e-05
14 *291:18 *724:8 0.000113235
15 *322:24 *1786:B1 6.16531e-05
16 *322:24 *724:16 0.000215187
17 *329:12 *1786:B1 8.82524e-05
18 *329:12 *724:16 6.9423e-05
19 *401:12 *724:16 0.000295058
20 *403:12 *724:16 9.20222e-05
21 *415:33 *1729:B1 5.3304e-05
22 *415:33 *724:16 3.67392e-05
23 *417:8 *1729:B1 4.22172e-05
24 *417:8 *724:12 7.61229e-06
25 *418:10 *724:8 0.000191848
26 *544:60 *724:8 2.11157e-05
27 *705:57 *1786:B1 2.93845e-05
28 *723:19 *724:8 6.00824e-05
*RES
1 *2058:Q *724:8 42.7229 
2 *724:8 *724:12 17.5271 
3 *724:12 *724:16 21.1314 
4 *724:16 *1708:C 39.5743 
5 *724:16 *1786:B1 41.2314 
6 *724:12 *1729:B1 24.0979 
*END

*D_NET *725 0.00189002
*CONN
*I *2169:A I *D sky130_fd_sc_hd__dlygate4sd3_1
*I *1633:B I *D sky130_fd_sc_hd__and3_2
*I *2055:Q O *D sky130_fd_sc_hd__dfrtp_2
*CAP
1 *2169:A 0.000124104
2 *1633:B 0
3 *2055:Q 0.000156326
4 *725:12 0.000224208
5 *725:6 0.000504637
6 *1842:B1 *725:12 0.00023462
7 *328:8 *725:12 3.70094e-05
8 *565:10 *2169:A 9.00923e-05
9 *565:10 *725:6 2.93747e-05
10 *692:90 *725:12 1.2878e-05
11 *694:144 *725:12 0.000476768
*RES
1 *2055:Q *725:6 25.5271 
2 *725:6 *725:12 36.4836 
3 *725:12 *1633:B 23 
4 *725:6 *2169:A 25.5271 
*END

*D_NET *726 0.0058831
*CONN
*I *1620:A I *D sky130_fd_sc_hd__nand2_2
*I *2223:A I *D sky130_fd_sc_hd__dlygate4sd3_1
*I *1621:A1 I *D sky130_fd_sc_hd__a31o_2
*I *1783:A1 I *D sky130_fd_sc_hd__a22o_2
*I *2059:Q O *D sky130_fd_sc_hd__dfrtp_2
*CAP
1 *1620:A 0.000424541
2 *2223:A 1.55776e-05
3 *1621:A1 0.000218906
4 *1783:A1 0.000257575
5 *2059:Q 0
6 *726:34 0.000569244
7 *726:8 0.00120413
8 *726:4 0.000856775
9 *1620:A *734:33 8.62876e-05
10 *1621:A1 *1722:A1 0.000136486
11 *1621:A1 *727:40 0.000204346
12 *1783:A1 *1722:A1 0.00010803
13 *1783:A1 *727:25 0.000164282
14 *1783:A1 *727:40 0.000274562
15 *1783:A1 *731:122 2.90455e-05
16 *1783:A1 *731:124 0.000518308
17 *2223:A *1841:A 5.56356e-05
18 *726:8 *1721:A1 1.05235e-05
19 *1621:A2 *1621:A1 9.58714e-05
20 *1798:A2 *1620:A 0.000377353
21 *2059:RESET_B *726:8 1.19087e-05
22 *13:14 *1620:A 6.6923e-05
23 *332:23 *1783:A1 0.000115138
24 *450:33 *2223:A 5.56356e-05
25 *450:33 *726:34 0
26 *535:15 *1621:A1 0
27 *708:16 *1620:A 2.60152e-05
*RES
1 *2059:Q *726:4 23 
2 *726:4 *726:8 23.7207 
3 *726:8 *1783:A1 47.57 
4 *726:8 *1621:A1 42.06 
5 *726:4 *726:34 16.9057 
6 *726:34 *2223:A 38.6214 
7 *726:34 *1620:A 46.1614 
*END

*D_NET *727 0.00519877
*CONN
*I *1622:A I *D sky130_fd_sc_hd__nand2_2
*I *1623:A1 I *D sky130_fd_sc_hd__a31o_2
*I *2222:A I *D sky130_fd_sc_hd__dlygate4sd3_1
*I *1783:B2 I *D sky130_fd_sc_hd__a22o_2
*I *2060:Q O *D sky130_fd_sc_hd__dfrtp_2
*CAP
1 *1622:A 0
2 *1623:A1 0
3 *2222:A 0.000128541
4 *1783:B2 0
5 *2060:Q 0.000122412
6 *727:59 0.000138638
7 *727:48 0.00027072
8 *727:40 0.000770941
9 *727:25 0.00055352
10 *727:16 0.000251469
11 *727:6 0.000437278
12 *727:40 *734:44 6.9805e-05
13 *727:40 *734:63 4.3407e-05
14 *727:40 *774:8 0
15 *727:48 *734:44 6.17437e-06
16 *727:48 *734:52 4.67488e-05
17 *727:48 *777:8 0.000138718
18 *727:59 *774:8 0.000246757
19 *1621:A1 *727:40 0.000204346
20 *1626:A *727:16 0
21 *1783:A1 *727:25 0.000164282
22 *1783:A1 *727:40 0.000274562
23 *1784:B *2222:A 0.000221992
24 *187:8 *727:16 4.04496e-05
25 *331:10 *727:40 0
26 *332:23 *727:16 0.000248321
27 *332:23 *727:25 0.000166522
28 *332:23 *727:40 0.000232142
29 *341:27 *727:48 4.67488e-05
30 *341:45 *727:40 1.19692e-05
31 *341:45 *727:59 0
32 *535:6 *727:40 7.59794e-05
33 *535:6 *727:48 6.17437e-06
34 *535:15 *727:40 0
35 *551:18 *727:6 6.55954e-05
36 *551:18 *727:16 4.98398e-05
37 *684:8 *727:48 1.59094e-05
38 *694:122 *727:16 1.0092e-05
39 *711:20 *727:48 0.000138718
40 *711:20 *727:59 0
*RES
1 *2060:Q *727:6 24.5743 
2 *727:6 *727:16 35.3857 
3 *727:16 *1783:B2 23 
4 *727:6 *727:25 17.2579 
5 *727:25 *2222:A 40.5271 
6 *727:25 *727:40 24.8186 
7 *727:40 *727:48 35.3857 
8 *727:48 *1623:A1 23 
9 *727:40 *727:59 33.3143 
10 *727:59 *1622:A 23 
*END

*D_NET *728 0.00419983
*CONN
*I *2182:A I *D sky130_fd_sc_hd__dlygate4sd3_1
*I *1758:A1 I *D sky130_fd_sc_hd__a22o_2
*I *1719:A I *D sky130_fd_sc_hd__and3_2
*I *2061:Q O *D sky130_fd_sc_hd__dfrtp_2
*CAP
1 *2182:A 0
2 *1758:A1 0.000650432
3 *1719:A 0.000702823
4 *2061:Q 0.000111781
5 *728:27 0.000976762
6 *728:10 0.00114093
7 *1719:A *1719:C 9.84794e-05
8 *1758:A1 *1758:A2 3.04324e-05
9 *1719:B *1719:A 7.83852e-05
10 *1977:A *1758:A1 9.84794e-05
11 *2061:RESET_B *728:10 5.67058e-05
12 *188:8 *728:10 2.29192e-05
13 *188:8 *728:27 7.41231e-05
14 *439:10 *1758:A1 1.14876e-05
15 *550:12 *728:27 0
16 *550:14 *728:27 0
17 *581:10 *728:27 0.000141869
18 *681:8 *728:10 0
19 *681:8 *728:27 0
20 *681:19 *728:27 0
21 *681:32 *728:27 4.21594e-06
*RES
1 *2061:Q *728:10 39.8229 
2 *728:10 *1719:A 47.8393 
3 *728:10 *728:27 21.4836 
4 *728:27 *1758:A1 33.1707 
5 *728:27 *2182:A 23 
*END

*D_NET *729 0.00492838
*CONN
*I *2174:A I *D sky130_fd_sc_hd__dlygate4sd3_1
*I *1741:A1 I *D sky130_fd_sc_hd__a22o_2
*I *1796:A I *D sky130_fd_sc_hd__and3_2
*I *2056:Q O *D sky130_fd_sc_hd__dfrtp_2
*CAP
1 *2174:A 0.000131757
2 *1741:A1 0
3 *1796:A 0.000360858
4 *2056:Q 0.000379552
5 *729:36 0.000531172
6 *729:30 0.000662928
7 *729:10 0.00074041
8 *1743:A3 *729:36 0
9 *1743:B1 *1796:A 0
10 *1797:A2 *1796:A 0.000269775
11 *1797:B1 *1796:A 5.25848e-05
12 *1945:A *2174:A 9.79925e-05
13 *2056:CLK *729:10 6.51763e-05
14 *2152:A *729:36 0
15 *2175:A *729:10 2.64616e-05
16 *131:10 *729:10 0
17 *131:10 *729:36 0.000240774
18 *135:10 *1796:A 5.3304e-05
19 *183:10 *2174:A 5.14826e-05
20 *183:10 *729:36 0
21 *424:10 *729:36 0.000220875
22 *426:22 *1796:A 9.41704e-05
23 *535:176 *729:36 0.000223736
24 *535:190 *2174:A 6.35028e-05
25 *535:190 *729:36 3.92115e-05
26 *537:10 *729:36 0
27 *552:62 *729:10 0.000103009
28 *556:20 *1796:A 2.18506e-05
29 *556:31 *1796:A 2.07242e-05
30 *716:53 *729:10 0.000139647
31 *716:53 *729:36 0.00029298
32 *721:25 *729:36 4.4443e-05
*RES
1 *2056:Q *729:10 45.25 
2 *729:10 *1796:A 45.3329 
3 *2056:Q *729:30 38 
4 *729:30 *729:36 27.905 
5 *729:36 *1741:A1 23 
6 *729:30 *2174:A 41.0036 
*END

*D_NET *730 0.00218198
*CONN
*I *2231:A I *D sky130_fd_sc_hd__dlygate4sd3_1
*I *1751:A_N I *D sky130_fd_sc_hd__nand2b_2
*I *2099:Q O *D sky130_fd_sc_hd__dfrtp_2
*CAP
1 *2231:A 0
2 *1751:A_N 0
3 *2099:Q 0.00012954
4 *730:27 0.000217284
5 *730:14 0.000255072
6 *730:6 0.000601896
7 *730:14 *1751:B 5.50049e-05
8 *730:14 *731:72 0
9 *1723:A1 *730:14 5.67058e-05
10 *1768:A2 *730:14 0
11 *434:8 *730:14 0.000102356
12 *436:10 *730:27 0.000137754
13 *641:10 *730:14 0.000457831
14 *689:17 *730:6 7.01168e-05
15 *689:17 *730:27 9.84137e-05
*RES
1 *2099:Q *730:6 24.5743 
2 *730:6 *730:14 37.4571 
3 *730:14 *1751:A_N 23 
4 *730:6 *730:27 33.9564 
5 *730:27 *2231:A 23 
*END

*D_NET *731 0.0154922
*CONN
*I *1722:A1 I *D sky130_fd_sc_hd__o31a_2
*I *1721:A1 I *D sky130_fd_sc_hd__o31a_2
*I *1753:B I *D sky130_fd_sc_hd__nand2b_2
*I *1724:A2 I *D sky130_fd_sc_hd__a21oi_2
*I *1751:B I *D sky130_fd_sc_hd__nand2b_2
*I *1723:A2 I *D sky130_fd_sc_hd__a21oi_2
*I *1727:B1 I *D sky130_fd_sc_hd__o21a_2
*I *1728:A1 I *D sky130_fd_sc_hd__a21oi_2
*I *1731:A1 I *D sky130_fd_sc_hd__a21oi_2
*I *1610:A I *D sky130_fd_sc_hd__inv_2
*I *2087:Q O *D sky130_fd_sc_hd__dfstp_2
*CAP
1 *1722:A1 0.000152928
2 *1721:A1 0.000261596
3 *1753:B 0
4 *1724:A2 0
5 *1751:B 0.000192284
6 *1723:A2 2.81847e-05
7 *1727:B1 0
8 *1728:A1 0
9 *1731:A1 0.000325106
10 *1610:A 0.000288124
11 *2087:Q 0
12 *731:124 0.000659739
13 *731:122 0.00166259
14 *731:109 0.00172667
15 *731:96 0.000351749
16 *731:72 0.00035458
17 *731:68 0.000472676
18 *731:41 0.000853985
19 *731:29 0.000528879
20 *731:12 0.00078663
21 *731:4 0.000794618
22 *1722:A1 *1621:B1 0
23 *1621:A1 *1722:A1 0.000136486
24 *1621:A2 *1722:A1 7.59794e-05
25 *1720:A2 *1610:A 2.19403e-05
26 *1722:A2 *1722:A1 3.91386e-05
27 *1723:A1 *1751:B 0.000290027
28 *1723:B1 *1751:B 9.68779e-05
29 *1726:B *1610:A 1.18379e-05
30 *1726:B *731:12 1.51481e-05
31 *1726:B *731:41 0.000493335
32 *1728:A2 *1731:A1 0.000140652
33 *1731:A2 *1731:A1 4.33419e-05
34 *1768:A1 *1751:B 0
35 *1783:A1 *1722:A1 0.00010803
36 *1783:A1 *731:122 2.90455e-05
37 *1783:A1 *731:124 0.000518308
38 *1790:A *1610:A 4.70153e-05
39 *1832:B *731:68 7.50355e-05
40 *2099:CLK *731:41 1.24376e-05
41 *140:10 *1610:A 0.000294888
42 *140:10 *731:12 8.37971e-05
43 *179:10 *731:122 0
44 *180:10 *731:122 5.80963e-05
45 *226:8 *731:109 3.19287e-05
46 *285:10 *731:122 5.561e-05
47 *286:10 *731:122 7.03766e-05
48 *287:8 *731:122 0.000181432
49 *293:8 *1722:A1 0.000140949
50 *326:6 *1610:A 5.5792e-05
51 *331:42 *1722:A1 0.000140259
52 *411:8 *1723:A2 2.30292e-05
53 *411:8 *1751:B 1.22822e-05
54 *412:8 *731:68 0.000110402
55 *412:14 *731:12 2.33679e-05
56 *412:14 *731:68 3.2277e-05
57 *416:10 *731:41 9.65021e-05
58 *417:16 *731:41 8.81402e-05
59 *418:10 *1731:A1 4.03402e-06
60 *435:12 *731:122 0.000147656
61 *436:10 *731:122 0
62 *436:12 *731:122 0
63 *437:23 *731:122 0
64 *438:10 *731:122 0
65 *442:10 *731:122 0.000154333
66 *443:8 *731:122 6.63814e-05
67 *471:20 *731:12 9.79925e-05
68 *471:20 *731:68 2.33782e-05
69 *535:15 *1722:A1 3.24733e-05
70 *535:15 *731:122 5.91218e-05
71 *535:15 *731:124 0.000152975
72 *535:33 *731:122 4.35396e-05
73 *544:40 *1610:A 0.000346884
74 *544:42 *731:41 7.97083e-05
75 *544:60 *731:41 0.000337667
76 *550:12 *731:122 0
77 *550:14 *731:122 0
78 *550:36 *731:109 2.95526e-05
79 *550:36 *731:122 0.000104578
80 *551:37 *1721:A1 0.000115
81 *641:10 *731:72 0
82 *641:10 *731:122 7.74223e-05
83 *653:10 *731:122 0.00014411
84 *680:10 *731:12 1.90974e-05
85 *680:14 *731:12 2.50612e-05
86 *680:36 *731:12 4.82016e-05
87 *694:122 *731:122 0
88 *712:42 *731:122 0
89 *715:10 *731:122 0.000220511
90 *723:8 *1731:A1 2.92911e-06
91 *726:8 *1721:A1 1.05235e-05
92 *730:14 *1751:B 5.50049e-05
93 *730:14 *731:72 0
*RES
1 *2087:Q *731:4 23 
2 *731:4 *731:12 24.7979 
3 *731:12 *1610:A 45.6436 
4 *731:12 *731:29 15 
5 *731:29 *731:41 41.745 
6 *731:41 *1731:A1 28.3236 
7 *731:41 *1728:A1 23 
8 *731:29 *1727:B1 23 
9 *731:4 *731:68 21.3386 
10 *731:68 *731:72 17.2579 
11 *731:72 *1723:A2 23.6214 
12 *731:72 *1751:B 29.1936 
13 *731:68 *731:96 0.849286 
14 *731:96 *1724:A2 38 
15 *731:96 *731:109 21.0486 
16 *731:109 *1753:B 23 
17 *731:109 *731:122 47.2211 
18 *731:122 *731:124 7.01179 
19 *731:124 *1721:A1 41.9771 
20 *731:124 *1722:A1 43.3857 
*END

*D_NET *732 0.00132762
*CONN
*I *1758:A2 I *D sky130_fd_sc_hd__a22o_2
*I *1774:B1_N I *D sky130_fd_sc_hd__a21boi_2
*I *1719:C I *D sky130_fd_sc_hd__and3_2
*I *2088:Q O *D sky130_fd_sc_hd__dfrtp_2
*CAP
1 *1758:A2 0.000131625
2 *1774:B1_N 0
3 *1719:C 0.000143702
4 *2088:Q 0.000271164
5 *732:22 0.000259087
6 *1719:A *1719:C 9.84794e-05
7 *1719:B *1719:C 2.13733e-05
8 *1719:B *732:22 5.50049e-05
9 *1758:A1 *1758:A2 3.04324e-05
10 *413:31 *732:22 0.000139647
11 *439:10 *1758:A2 3.7122e-06
12 *544:34 *1758:A2 7.45278e-05
13 *544:34 *732:22 9.88678e-05
14 *555:84 *1758:A2 0
15 *555:86 *1758:A2 0
16 *555:86 *732:22 0
*RES
1 *2088:Q *1719:C 48.0507 
2 *2088:Q *732:22 41.2314 
3 *732:22 *1774:B1_N 38 
4 *732:22 *1758:A2 40.61 
*END

*D_NET *733 0.00628578
*CONN
*I *2242:A I *D sky130_fd_sc_hd__dlygate4sd3_1
*I *1613:A I *D sky130_fd_sc_hd__inv_2
*I *1708:D I *D sky130_fd_sc_hd__and4b_2
*I *1706:D I *D sky130_fd_sc_hd__and4b_2
*I *2089:Q O *D sky130_fd_sc_hd__dfrtp_2
*CAP
1 *2242:A 0.000388219
2 *1613:A 5.35188e-05
3 *1708:D 4.28346e-05
4 *1706:D 0
5 *2089:Q 0.000217625
6 *733:36 0.000445624
7 *733:20 0.000941292
8 *733:16 0.000827088
9 *733:8 0.000926579
10 *1708:D *739:26 2.31687e-05
11 *733:20 *739:32 1.96206e-05
12 *733:36 *739:10 0.000124169
13 *1706:C *733:36 6.70361e-05
14 *1708:C *1708:D 5.3304e-05
15 *1759:A_N *1613:A 8.40645e-05
16 *1759:A_N *733:16 0.000313244
17 *1785:B1 *733:36 4.11461e-05
18 *1786:B1 *733:20 6.07929e-05
19 *1887:C1 *2242:A 0
20 *2063:RESET_B *733:16 1.24376e-05
21 *2086:CLK *2242:A 0
22 *2089:RESET_B *733:8 0.000137039
23 *141:10 *733:20 0.000155844
24 *144:10 *2242:A 8.16253e-05
25 *322:24 *733:20 7.41959e-05
26 *322:24 *733:36 0.000120014
27 *325:10 *2242:A 0
28 *329:12 *733:20 0
29 *329:12 *733:36 0.000204558
30 *401:29 *733:20 0.000154613
31 *401:29 *733:36 2.11066e-05
32 *403:12 *1708:D 4.8927e-05
33 *413:41 *2242:A 0.000163791
34 *413:41 *733:16 0.000144158
35 *413:66 *2242:A 2.12147e-05
36 *445:45 *2242:A 3.13952e-05
37 *454:20 *733:16 0
38 *454:20 *733:20 0.000184816
39 *545:10 *2242:A 0
40 *705:10 *733:16 1.56762e-05
41 *705:67 *733:20 8.50457e-05
*RES
1 *2089:Q *733:8 41.0036 
2 *733:8 *733:16 23.12 
3 *733:16 *733:20 23.5964 
4 *733:20 *733:36 37.1403 
5 *733:36 *1706:D 23 
6 *733:20 *1708:D 39.0979 
7 *733:16 *1613:A 24.0979 
8 *733:8 *2242:A 45.8921 
*END

*D_NET *734 0.00659542
*CONN
*I *1621:A3 I *D sky130_fd_sc_hd__a31o_2
*I *1623:A2 I *D sky130_fd_sc_hd__a31o_2
*I *1615:A I *D sky130_fd_sc_hd__inv_2
*I *1622:B I *D sky130_fd_sc_hd__nand2_2
*I *1620:B I *D sky130_fd_sc_hd__nand2_2
*I *1841:A I *D sky130_fd_sc_hd__and2_2
*I *2090:Q O *D sky130_fd_sc_hd__dfrtp_2
*CAP
1 *1621:A3 0
2 *1623:A2 0
3 *1615:A 0.000175427
4 *1622:B 0
5 *1620:B 0
6 *1841:A 0.000125841
7 *2090:Q 0.000204323
8 *734:71 0.000344602
9 *734:63 0.000253785
10 *734:52 0.000218953
11 *734:44 0.000728407
12 *734:33 0.000146002
13 *734:12 0.000576574
14 *734:8 0.000933898
15 *734:52 *774:8 0.000299196
16 *734:63 *774:8 0.000139647
17 *734:71 *1621:B1 5.50106e-05
18 *734:71 *1623:B1 5.67058e-05
19 *1620:A *734:33 8.62876e-05
20 *1621:A2 *1841:A 0
21 *1621:A2 *734:12 0.000228909
22 *1623:A3 *1615:A 2.32004e-05
23 *1623:A3 *734:71 1.24376e-05
24 *1798:A2 *734:33 0.000146822
25 *2223:A *1841:A 5.56356e-05
26 *13:14 *734:33 9.21364e-05
27 *230:10 *734:52 0
28 *330:25 *734:8 0.000326973
29 *331:6 *734:71 1.03836e-05
30 *331:42 *734:8 8.94487e-05
31 *335:8 *1615:A 5.29672e-05
32 *335:8 *734:71 0.00024628
33 *337:8 *734:52 0
34 *341:27 *734:52 8.75792e-05
35 *341:45 *734:44 0.0002263
36 *450:33 *1841:A 7.25816e-05
37 *450:33 *734:12 9.24795e-06
38 *535:6 *734:44 8.76961e-08
39 *535:13 *734:44 3.39418e-05
40 *535:15 *734:8 0.000110962
41 *535:15 *734:44 2.11887e-05
42 *708:10 *734:33 6.07611e-06
43 *708:16 *734:12 9.6103e-05
44 *708:16 *734:33 0.000135359
45 *727:40 *734:44 6.9805e-05
46 *727:40 *734:63 4.3407e-05
47 *727:48 *734:44 6.17437e-06
48 *727:48 *734:52 4.67488e-05
*RES
1 *2090:Q *734:8 43.7793 
2 *734:8 *734:12 19.9093 
3 *734:12 *1841:A 25.9 
4 *734:12 *734:33 34.2464 
5 *734:33 *1620:B 23 
6 *734:8 *734:44 21.5871 
7 *734:44 *734:52 35.1164 
8 *734:52 *1622:B 23 
9 *734:44 *734:63 31.9057 
10 *734:63 *734:71 5.09571 
11 *734:71 *1615:A 25.9 
12 *734:71 *1623:A2 23 
13 *734:63 *1621:A3 23 
*END

*D_NET *735 0.0056612
*CONN
*I *1626:B I *D sky130_fd_sc_hd__and3_2
*I *1788:A1 I *D sky130_fd_sc_hd__a221o_2
*I *1625:A I *D sky130_fd_sc_hd__nand2_2
*I *1758:B1 I *D sky130_fd_sc_hd__a22o_2
*I *1759:B I *D sky130_fd_sc_hd__nand3b_2
*I *1712:A2 I *D sky130_fd_sc_hd__a31o_2
*I *2091:Q O *D sky130_fd_sc_hd__dfrtp_2
*CAP
1 *1626:B 0.000233555
2 *1788:A1 0
3 *1625:A 0
4 *1758:B1 2.4078e-05
5 *1759:B 1.90506e-05
6 *1712:A2 0
7 *2091:Q 0.000585868
8 *735:77 0.000538315
9 *735:63 0.000881274
10 *735:52 0.000304675
11 *735:22 0.000126326
12 *735:14 0.000364437
13 *735:10 0.000243139
14 *735:8 0.000390598
15 *1759:B *1758:B2 1.12349e-05
16 *1759:B *1759:C 5.47983e-06
17 *735:14 *1758:B2 0.000321606
18 *735:14 *1759:C 2.31591e-05
19 *735:22 *1712:A3 5.11807e-05
20 *735:22 *1759:C 2.93431e-05
21 *1788:A2 *735:77 0.000102389
22 *1788:B1 *735:77 3.22051e-05
23 *1788:B2 *735:77 2.84288e-05
24 *1788:C1 *1626:B 5.38446e-05
25 *1788:C1 *735:77 0.00021827
26 *2085:CLK *735:52 4.06849e-05
27 *218:8 *735:8 0.000116314
28 *440:10 *1758:B1 2.93845e-05
29 *440:10 *735:8 0.000379431
30 *440:10 *735:14 1.22822e-05
31 *449:48 *735:77 0
32 *535:33 *735:63 2.61781e-05
33 *544:34 *735:8 2.60152e-05
34 *555:80 *735:8 0
35 *555:80 *735:52 0.000138145
36 *555:80 *735:63 0.000157063
37 *681:50 *735:63 0
38 *681:50 *735:77 0.000135943
39 *681:94 *735:8 1.13013e-05
40 *681:94 *735:52 0
*RES
1 *2091:Q *735:8 46.2443 
2 *735:8 *735:10 15 
3 *735:10 *735:14 4.93 
4 *735:14 *735:22 32.175 
5 *735:22 *1712:A2 23 
6 *735:14 *1759:B 23.4971 
7 *735:10 *1758:B1 23.6214 
8 *2091:Q *735:52 41.48 
9 *735:52 *1625:A 38 
10 *735:52 *735:63 17.2579 
11 *735:63 *735:77 39.0314 
12 *735:77 *1788:A1 23 
13 *735:63 *1626:B 26.0036 
*END

*D_NET *736 0.0022723
*CONN
*I *2228:A I *D sky130_fd_sc_hd__dlygate4sd3_1
*I *1626:C I *D sky130_fd_sc_hd__and3_2
*I *1625:B I *D sky130_fd_sc_hd__nand2_2
*I *2085:Q O *D sky130_fd_sc_hd__dfrtp_2
*CAP
1 *2228:A 0
2 *1626:C 0
3 *1625:B 8.59319e-05
4 *2085:Q 9.5795e-05
5 *736:25 0.000207805
6 *736:12 0.000532537
7 *736:10 0.0002388
8 *736:8 9.5795e-05
9 *1760:B1 *736:25 0.000113369
10 *1974:A *736:8 8.21456e-06
11 *143:10 *1625:B 4.67488e-05
12 *212:10 *736:25 0
13 *413:66 *736:12 5.3304e-05
14 *441:23 *736:8 0
15 *445:10 *1625:B 0.000182213
16 *445:10 *736:12 0.000533399
17 *449:48 *736:25 1.74467e-05
18 *681:32 *736:8 6.09443e-05
*RES
1 *2085:Q *736:8 39.9057 
2 *736:8 *736:10 15 
3 *736:10 *736:12 5.86214 
4 *736:12 *1625:B 25.0507 
5 *736:12 *736:25 33.6664 
6 *736:25 *1626:C 23 
7 *736:10 *2228:A 23 
*END

*D_NET *737 0.00413155
*CONN
*I *2230:A I *D sky130_fd_sc_hd__dlygate4sd3_1
*I *1758:B2 I *D sky130_fd_sc_hd__a22o_2
*I *1759:C I *D sky130_fd_sc_hd__nand3b_2
*I *1712:A3 I *D sky130_fd_sc_hd__a31o_2
*I *2086:Q O *D sky130_fd_sc_hd__dfrtp_2
*CAP
1 *2230:A 0.00053761
2 *1758:B2 8.84516e-05
3 *1759:C 9.70648e-05
4 *1712:A3 0.000241685
5 *2086:Q 0.000398525
6 *737:52 0.000673439
7 *737:23 0.000185516
8 *737:10 0.000504381
9 *1712:A1 *1712:A3 5.56279e-05
10 *1759:A_N *1759:C 5.47983e-06
11 *1759:B *1758:B2 1.12349e-05
12 *1759:B *1759:C 5.47983e-06
13 *2085:CLK *2230:A 0.000368594
14 *213:10 *737:52 2.04854e-05
15 *413:31 *1712:A3 8.15864e-05
16 *440:10 *1758:B2 0.000131009
17 *544:23 *737:10 0.000165003
18 *545:29 *2230:A 1.41077e-05
19 *681:94 *737:52 0.000120979
20 *735:14 *1758:B2 0.000321606
21 *735:14 *1759:C 2.31591e-05
22 *735:22 *1712:A3 5.11807e-05
23 *735:22 *1759:C 2.93431e-05
*RES
1 *2086:Q *737:10 43.3443 
2 *737:10 *1712:A3 42.1843 
3 *737:10 *737:23 15 
4 *737:23 *1759:C 25.0714 
5 *737:23 *1758:B2 26.9771 
6 *2086:Q *737:52 40.2993 
7 *737:52 *2230:A 46.4307 
*END

*D_NET *738 0.00388414
*CONN
*I *1785:A1 I *D sky130_fd_sc_hd__o21a_2
*I *1707:A I *D sky130_fd_sc_hd__nor2_2
*I *1706:A_N I *D sky130_fd_sc_hd__and4b_2
*I *2064:Q O *D sky130_fd_sc_hd__dfrtp_2
*CAP
1 *1785:A1 3.52973e-05
2 *1707:A 0
3 *1706:A_N 0.000114735
4 *2064:Q 0.000331297
5 *738:39 0.000251032
6 *738:29 0.000578269
7 *738:10 0.000737972
8 *1706:A_N *739:10 3.00511e-05
9 *1785:A1 *1708:A_N 4.08664e-05
10 *738:29 *1708:A_N 5.3304e-05
11 *1785:A2 *738:29 9.09644e-05
12 *1785:B1 *738:10 1.00203e-05
13 *1785:B1 *738:29 5.91319e-05
14 *1786:B1 *738:39 5.50106e-05
15 *1787:A *738:29 5.3304e-05
16 *1787:B *738:29 7.23821e-05
17 *1952:A *738:39 6.10551e-06
18 *2155:A *738:10 0.000138859
19 *329:12 *738:39 0.000216721
20 *401:29 *738:39 5.04675e-05
21 *402:6 *738:39 0.000353097
22 *453:10 *738:39 0.000114065
23 *484:6 *738:10 2.2065e-05
24 *484:12 *738:10 3.9788e-05
25 *677:10 *738:10 0.000168965
26 *677:10 *738:29 6.5117e-06
27 *677:27 *738:29 6.36158e-05
28 *678:12 *1706:A_N 1.84917e-05
29 *705:12 *738:39 0
30 *705:16 *738:29 3.47781e-05
31 *705:22 *738:29 5.73066e-05
32 *705:57 *738:39 7.73099e-05
33 *724:8 *738:10 2.35118e-06
*RES
1 *2064:Q *738:10 44.5664 
2 *738:10 *1706:A_N 40.0507 
3 *738:10 *738:29 21.4836 
4 *738:29 *738:39 37.4157 
5 *738:39 *1707:A 23 
6 *738:29 *1785:A1 23.6214 
*END

*D_NET *739 0.00280774
*CONN
*I *1709:A I *D sky130_fd_sc_hd__nor2_2
*I *1786:A1 I *D sky130_fd_sc_hd__o21a_2
*I *1708:A_N I *D sky130_fd_sc_hd__and4b_2
*I *2065:Q O *D sky130_fd_sc_hd__dfrtp_2
*CAP
1 *1709:A 8.23088e-05
2 *1786:A1 0
3 *1708:A_N 0.000197906
4 *2065:Q 0.000342074
5 *739:32 0.000117846
6 *739:26 0.000317745
7 *739:10 0.000422389
8 *1706:A_N *739:10 3.00511e-05
9 *1708:C *739:26 0.000135037
10 *1708:D *739:26 2.31687e-05
11 *1709:B *1709:A 3.7685e-05
12 *1785:A1 *1708:A_N 4.08664e-05
13 *1785:A2 *1708:A_N 5.3304e-05
14 *1785:B1 *739:10 0.000138727
15 *322:10 *739:32 2.04934e-05
16 *322:14 *1709:A 0.000144501
17 *322:14 *739:26 8.17328e-05
18 *322:24 *739:26 5.3304e-05
19 *329:12 *739:10 5.62433e-06
20 *401:29 *739:32 0.000109352
21 *403:12 *1709:A 1.96141e-05
22 *678:12 *739:10 0.000226907
23 *705:67 *739:32 1.00084e-05
24 *733:20 *739:32 1.96206e-05
25 *733:36 *739:10 0.000124169
26 *738:29 *1708:A_N 5.3304e-05
*RES
1 *2065:Q *739:10 43.8621 
2 *739:10 *1708:A_N 39.5743 
3 *1708:A_N *739:26 25.5271 
4 *739:26 *739:32 32.2579 
5 *739:32 *1786:A1 23 
6 *739:26 *1709:A 25.5479 
*END

*D_NET *740 0.00470718
*CONN
*I *1649:A I *D sky130_fd_sc_hd__and3_2
*I *1651:A I *D sky130_fd_sc_hd__nand4_2
*I *2192:A I *D sky130_fd_sc_hd__dlygate4sd3_1
*I *1803:A1 I *D sky130_fd_sc_hd__a21oi_2
*I *2105:Q O *D sky130_fd_sc_hd__dfrtp_2
*CAP
1 *1649:A 0
2 *1651:A 2.34823e-05
3 *2192:A 0.000262766
4 *1803:A1 0.000208178
5 *2105:Q 4.89344e-05
6 *740:61 0.00034121
7 *740:44 0.000585124
8 *740:25 0.000573084
9 *740:8 0.000346999
10 *1803:A1 *747:16 0.00017885
11 *2192:A *747:16 6.17437e-06
12 *740:25 *747:16 0.000105062
13 *740:61 *1649:B 1.41244e-05
14 *740:61 *2221:A 0.000333988
15 *740:61 *747:25 3.70187e-05
16 *1803:B1 *1803:A1 9.69584e-05
17 *2106:D *2192:A 2.64616e-05
18 *156:8 *740:44 7.03869e-05
19 *157:10 *740:61 5.50106e-05
20 *274:8 *740:44 0.000182473
21 *522:16 *2192:A 2.31116e-05
22 *522:16 *740:25 1.11421e-05
23 *522:16 *740:44 3.08233e-05
24 *535:296 *740:8 1.14005e-06
25 *535:313 *740:8 1.27917e-05
26 *548:58 *1803:A1 9.79925e-05
27 *549:28 *2192:A 5.70419e-05
28 *549:40 *740:61 9.04083e-05
29 *622:8 *740:44 2.64616e-05
30 *622:8 *740:61 5.12254e-05
31 *685:51 *740:44 1.21972e-05
32 *688:56 *1803:A1 8.3843e-05
33 *688:56 *740:25 0.000260655
34 *688:56 *740:44 0.000452063
*RES
1 *2105:Q *740:8 38.6214 
2 *740:8 *1803:A1 42.7229 
3 *740:8 *740:25 3.49036 
4 *740:25 *2192:A 42.8989 
5 *740:25 *740:44 22.0532 
6 *740:44 *1651:A 23.4971 
7 *740:44 *740:61 37.1879 
8 *740:61 *1649:A 23 
*END

*D_NET *741 0.00322981
*CONN
*I *1654:A I *D sky130_fd_sc_hd__or3b_2
*I *2211:A I *D sky130_fd_sc_hd__dlygate4sd3_1
*I *1822:A1 I *D sky130_fd_sc_hd__a21oi_2
*I *1821:A I *D sky130_fd_sc_hd__and3_2
*I *2115:Q O *D sky130_fd_sc_hd__dfrtp_2
*CAP
1 *1654:A 0.000151733
2 *2211:A 0.000153825
3 *1822:A1 0.000154524
4 *1821:A 0.000254082
5 *2115:Q 0
6 *741:21 0.000308348
7 *741:19 0.000374681
8 *741:6 0.00047703
9 *1654:A *1654:B 9.28945e-05
10 *1654:A *755:19 4.6318e-06
11 *741:19 *1654:B 9.07166e-05
12 *741:19 *742:23 0.000114952
13 *1822:B1 *1822:A1 9.84794e-05
14 *1822:B1 *2211:A 0.000181131
15 *1823:A *1821:A 5.67058e-05
16 *151:10 *1821:A 6.67059e-05
17 *467:10 *1822:A1 1.24376e-05
18 *535:233 *1821:A 0
19 *535:285 *2211:A 0
20 *535:290 *1822:A1 6.70749e-05
21 *535:290 *2211:A 1.5769e-05
22 *539:35 *1821:A 0
23 *539:48 *1654:A 0
24 *588:10 *1821:A 0.000380646
25 *588:10 *741:19 3.673e-05
26 *611:10 *1822:A1 5.50106e-05
27 *611:10 *741:19 8.17076e-05
28 *696:53 *1654:A 0
*RES
1 *2115:Q *741:6 38 
2 *741:6 *1821:A 44.525 
3 *741:6 *741:19 6.13143 
4 *741:19 *741:21 15 
5 *741:21 *1822:A1 26.5007 
6 *741:21 *2211:A 26.0243 
7 *741:19 *1654:A 41.3143 
*END

*D_NET *742 0.00435424
*CONN
*I *1654:B I *D sky130_fd_sc_hd__or3b_2
*I *2189:A I *D sky130_fd_sc_hd__dlygate4sd3_1
*I *1821:B I *D sky130_fd_sc_hd__and3_2
*I *2116:Q O *D sky130_fd_sc_hd__dfrtp_2
*CAP
1 *1654:B 0.00021074
2 *2189:A 0.00020995
3 *1821:B 0.000353404
4 *2116:Q 0.000405618
5 *742:23 0.000667036
6 *742:8 0.00100537
7 *1654:A *1654:B 9.28945e-05
8 *1823:A *1821:B 1.76557e-05
9 *2116:RESET_B *742:8 3.93032e-05
10 *150:10 *2189:A 0.000316278
11 *151:10 *1821:B 0.000223698
12 *535:233 *742:23 0
13 *587:10 *1654:B 6.57749e-05
14 *587:10 *2189:A 4.70479e-05
15 *588:10 *1821:B 8.62876e-05
16 *588:10 *742:23 0.000240411
17 *696:34 *2189:A 0.000167102
18 *696:53 *1654:B 0
19 *741:19 *1654:B 9.07166e-05
20 *741:19 *742:23 0.000114952
*RES
1 *2116:Q *742:8 43.3857 
2 *742:8 *1821:B 43.3029 
3 *742:8 *742:23 6.48357 
4 *742:23 *2189:A 43.8621 
5 *742:23 *1654:B 43.075 
*END

*D_NET *743 0.00363325
*CONN
*I *1825:B I *D sky130_fd_sc_hd__and3_2
*I *2218:A I *D sky130_fd_sc_hd__dlygate4sd3_1
*I *1655:B I *D sky130_fd_sc_hd__or4_2
*I *2251:A I *D sky130_fd_sc_hd__dlygate4sd3_1
*I *2117:Q O *D sky130_fd_sc_hd__dfrtp_2
*CAP
1 *1825:B 0.000404661
2 *2218:A 0
3 *1655:B 0.000175039
4 *2251:A 0.00029504
5 *2117:Q 0.000292825
6 *743:32 0.000585991
7 *743:21 0.0004826
8 *743:8 0.000714096
9 *1655:B *1655:D 0.000226907
10 *1825:B *744:38 2.45549e-06
11 *2251:A *2188:A 0
12 *2251:A *745:25 0
13 *743:32 *744:38 0
14 *1824:B *2251:A 0
15 *1826:A2 *2251:A 0
16 *244:10 *743:21 5.55241e-05
17 *244:10 *743:32 6.09655e-05
18 *366:10 *1825:B 0
19 *367:10 *1825:B 0
20 *466:8 *2251:A 2.93845e-05
21 *466:42 *1825:B 0.000184661
22 *466:42 *743:32 9.08119e-05
23 *676:10 *1825:B 0
24 *685:41 *1825:B 0
25 *688:27 *2251:A 3.22879e-05
*RES
1 *2117:Q *743:8 41.48 
2 *743:8 *2251:A 43.3443 
3 *743:8 *743:21 2.96214 
4 *743:21 *1655:B 40.5271 
5 *743:21 *743:32 3.66643 
6 *743:32 *2218:A 38 
7 *743:32 *1825:B 45.9336 
*END

*D_NET *744 0.00265499
*CONN
*I *1825:A I *D sky130_fd_sc_hd__and3_2
*I *1655:A I *D sky130_fd_sc_hd__or4_2
*I *2188:A I *D sky130_fd_sc_hd__dlygate4sd3_1
*I *2118:Q O *D sky130_fd_sc_hd__dfrtp_2
*CAP
1 *1825:A 0
2 *1655:A 0
3 *2188:A 0.000149524
4 *2118:Q 0
5 *744:38 0.000713443
6 *744:21 0.00097438
7 *744:6 0.000410461
8 *2188:A *745:25 4.54335e-05
9 *744:21 *745:25 9.6592e-05
10 *744:38 *1655:D 2.17753e-05
11 *1825:B *744:38 2.45549e-06
12 *2251:A *2188:A 0
13 *244:10 *744:38 0.000113612
14 *366:10 *744:21 6.17437e-06
15 *366:10 *744:38 0
16 *676:10 *744:38 3.7122e-06
17 *684:48 *2188:A 0.000113068
18 *687:12 *744:38 4.35681e-06
19 *743:32 *744:38 0
*RES
1 *2118:Q *744:6 38 
2 *744:6 *2188:A 41.6664 
3 *744:6 *744:21 20.6964 
4 *744:21 *1655:A 23 
5 *744:21 *744:38 42.1386 
6 *744:38 *1825:A 23 
*END

*D_NET *745 0.00408894
*CONN
*I *1828:A I *D sky130_fd_sc_hd__nand2_2
*I *1655:C I *D sky130_fd_sc_hd__or4_2
*I *2202:A I *D sky130_fd_sc_hd__dlygate4sd3_1
*I *2119:Q O *D sky130_fd_sc_hd__dfrtp_2
*CAP
1 *1828:A 0
2 *1655:C 0
3 *2202:A 0
4 *2119:Q 0.000552657
5 *745:39 0.000501785
6 *745:25 0.00101871
7 *745:12 0.00010857
8 *745:6 0.00117815
9 *2118:CLK *745:6 3.27534e-06
10 *2118:CLK *745:25 1.23032e-05
11 *2118:CLK *745:39 0.0002789
12 *2118:RESET_B *745:25 1.22775e-06
13 *2119:CLK *745:39 3.28357e-06
14 *2119:D *745:39 2.64616e-05
15 *2188:A *745:25 4.54335e-05
16 *2251:A *745:25 0
17 *152:8 *745:25 8.82249e-05
18 *244:10 *745:25 1.70419e-05
19 *470:10 *745:39 0.000136841
20 *548:36 *745:39 1.94812e-05
21 *744:21 *745:25 9.6592e-05
*RES
1 *2119:Q *745:6 23.6214 
2 *745:6 *745:12 31.9057 
3 *745:12 *2202:A 23 
4 *745:6 *745:25 45.6807 
5 *745:25 *1655:C 23 
6 *2119:Q *745:39 34.1236 
7 *745:39 *1828:A 23 
*END

*D_NET *746 0.00171179
*CONN
*I *1655:D I *D sky130_fd_sc_hd__or4_2
*I *2176:A I *D sky130_fd_sc_hd__dlygate4sd3_1
*I *2120:Q O *D sky130_fd_sc_hd__dfrtp_2
*CAP
1 *1655:D 0.000482381
2 *2176:A 2.30556e-05
3 *2120:Q 9.65519e-05
4 *746:12 0.000635
5 *746:8 0.000226115
6 *1655:B *1655:D 0.000226907
7 *744:38 *1655:D 2.17753e-05
*RES
1 *2120:Q *746:8 39.5536 
2 *746:8 *746:12 17.0507 
3 *746:12 *2176:A 23.4971 
4 *746:12 *1655:D 31.6171 
*END

*D_NET *747 0.00462021
*CONN
*I *1649:B I *D sky130_fd_sc_hd__and3_2
*I *2221:A I *D sky130_fd_sc_hd__dlygate4sd3_1
*I *1651:B I *D sky130_fd_sc_hd__nand4_2
*I *1803:A2 I *D sky130_fd_sc_hd__a21oi_2
*I *2106:Q O *D sky130_fd_sc_hd__dfrtp_2
*CAP
1 *1649:B 0.000154336
2 *2221:A 0.000329541
3 *1651:B 0
4 *1803:A2 0
5 *2106:Q 0.000289751
6 *747:25 0.000453532
7 *747:16 0.000667371
8 *747:6 0.00123545
9 *1649:B *1649:C 3.2957e-06
10 *2221:A *1651:C 0.000187986
11 *747:25 *1651:C 1.14452e-05
12 *1803:A1 *747:16 0.00017885
13 *2106:RESET_B *747:6 3.09135e-05
14 *2192:A *747:16 6.17437e-06
15 *155:8 *747:16 4.41821e-06
16 *157:10 *747:25 0.00011218
17 *362:8 *747:25 0
18 *522:16 *747:16 0.000222123
19 *535:313 *747:16 2.18063e-05
20 *548:58 *747:16 0.00010749
21 *549:12 *747:25 8.1606e-05
22 *549:40 *2221:A 9.21347e-06
23 *549:40 *747:25 4.98718e-06
24 *687:36 *747:25 0
25 *688:56 *747:16 1.75479e-05
26 *740:25 *747:16 0.000105062
27 *740:61 *1649:B 1.41244e-05
28 *740:61 *2221:A 0.000333988
29 *740:61 *747:25 3.70187e-05
*RES
1 *2106:Q *747:6 26.9564 
2 *747:6 *747:16 41.0821 
3 *747:16 *1803:A2 23 
4 *747:6 *747:25 21.8357 
5 *747:25 *1651:B 38 
6 *747:25 *2221:A 42.6607 
7 *2221:A *1649:B 48.4236 
*END

*D_NET *748 0.00252235
*CONN
*I *1649:C I *D sky130_fd_sc_hd__and3_2
*I *1651:D I *D sky130_fd_sc_hd__nand4_2
*I *2219:A I *D sky130_fd_sc_hd__dlygate4sd3_1
*I *2107:Q O *D sky130_fd_sc_hd__dfrtp_2
*CAP
1 *1649:C 0.000275595
2 *1651:D 0.000130824
3 *2219:A 0.000170037
4 *2107:Q 5.59455e-05
5 *748:21 0.00055764
6 *748:8 0.000377204
7 *1649:B *1649:C 3.2957e-06
8 *2106:RESET_B *2219:A 0.000188934
9 *157:10 *1651:D 0.000102389
10 *234:10 *1651:D 2.64616e-05
11 *234:10 *748:21 0.000192413
12 *622:8 *1651:D 6.23756e-05
13 *685:51 *1651:D 9.48975e-05
14 *687:36 *1649:C 0.000176045
15 *687:36 *2219:A 6.37905e-05
16 *687:36 *748:21 4.45034e-05
*RES
1 *2107:Q *748:8 38.6214 
2 *748:8 *2219:A 41.9564 
3 *748:8 *748:21 3.66643 
4 *748:21 *1651:D 41.5007 
5 *748:21 *1649:C 42.6607 
*END

*D_NET *749 0.00430887
*CONN
*I *1650:A I *D sky130_fd_sc_hd__and2_2
*I *2204:A I *D sky130_fd_sc_hd__dlygate4sd3_1
*I *1651:C I *D sky130_fd_sc_hd__nand4_2
*I *2108:Q O *D sky130_fd_sc_hd__dfrtp_2
*CAP
1 *1650:A 0.000301379
2 *2204:A 0.000231031
3 *1651:C 0.000354913
4 *2108:Q 0.000339021
5 *749:21 0.000691103
6 *749:8 0.000852626
7 *1650:A *2121:D 3.33746e-05
8 *749:21 *2121:D 5.61311e-05
9 *1805:A *2204:A 5.40971e-05
10 *2108:RESET_B *749:8 0.00018282
11 *2109:CLK *749:8 8.48502e-06
12 *2109:D *749:8 5.3304e-05
13 *2121:SET_B *1650:A 9.85988e-06
14 *2221:A *1651:C 0.000187986
15 *157:10 *1651:C 5.70006e-05
16 *159:10 *1651:C 2.29192e-05
17 *159:10 *749:21 6.7177e-06
18 *360:21 *1651:C 0
19 *360:21 *2204:A 9.17484e-05
20 *360:21 *749:21 0
21 *360:39 *1650:A 0.000329954
22 *362:8 *1651:C 0.000137413
23 *534:10 *1650:A 0.000196428
24 *549:40 *1651:C 0
25 *549:40 *749:21 0
26 *549:55 *1650:A 0
27 *549:55 *749:21 0
28 *622:8 *1651:C 9.91101e-05
29 *747:25 *1651:C 1.14452e-05
*RES
1 *2108:Q *749:8 42.4329 
2 *749:8 *1651:C 46.6379 
3 *749:8 *749:21 3.31429 
4 *749:21 *2204:A 42.4536 
5 *749:21 *1650:A 44.8979 
*END

*D_NET *750 0.00368714
*CONN
*I *1807:A1 I *D sky130_fd_sc_hd__a21oi_2
*I *1808:B I *D sky130_fd_sc_hd__and3_2
*I *1835:A2 I *D sky130_fd_sc_hd__a311o_2
*I *1834:B I *D sky130_fd_sc_hd__nor3_2
*I *1652:B I *D sky130_fd_sc_hd__nand2b_2
*I *2247:A I *D sky130_fd_sc_hd__dlygate4sd3_1
*I *2109:Q O *D sky130_fd_sc_hd__dfrtp_2
*CAP
1 *1807:A1 0
2 *1808:B 9.10984e-05
3 *1835:A2 0
4 *1834:B 9.92996e-05
5 *1652:B 0
6 *2247:A 0
7 *2109:Q 8.89829e-05
8 *750:41 0.000117941
9 *750:35 0.000288169
10 *750:31 0.000276675
11 *750:23 0.000361122
12 *750:19 0.000152578
13 *750:12 0.000232667
14 *750:8 0.000233349
15 *1834:B *1834:A 6.17437e-06
16 *1834:B *1834:C 5.56279e-05
17 *1834:B *751:16 3.74951e-05
18 *750:19 *751:57 0.000189857
19 *750:23 *751:57 4.19743e-05
20 *750:31 *751:14 7.45175e-05
21 *750:35 *1835:A1 3.91386e-05
22 *750:35 *1835:A3 5.3304e-05
23 *750:35 *751:16 0.000223698
24 *750:41 *1834:C 1.01436e-05
25 *750:41 *751:33 4.22694e-05
26 *750:41 *752:26 5.93174e-05
27 *1659:B *750:31 0.000265981
28 *1808:C *1808:B 0.000141052
29 *1808:C *750:23 1.32314e-05
30 *363:14 *750:31 0.000218013
31 *459:43 *1808:B 4.00259e-06
32 *472:8 *1834:B 1.32314e-05
33 *472:8 *750:35 8.68407e-05
34 *687:47 *750:8 0.000169385
*RES
1 *2109:Q *750:8 40.2579 
2 *750:8 *750:12 17.5271 
3 *750:12 *2247:A 23 
4 *750:12 *750:19 2.52714 
5 *750:19 *750:23 1.595 
6 *750:23 *750:31 35.5721 
7 *750:31 *750:35 3.02429 
8 *750:35 *750:41 32.61 
9 *750:41 *1652:B 23 
10 *750:35 *1834:B 25.0714 
11 *750:31 *1835:A2 23 
12 *750:23 *1808:B 25.4236 
13 *750:19 *1807:A1 23 
*END

*D_NET *751 0.00430149
*CONN
*I *1808:A I *D sky130_fd_sc_hd__and3_2
*I *1807:B1 I *D sky130_fd_sc_hd__a21oi_2
*I *1835:A1 I *D sky130_fd_sc_hd__a311o_2
*I *1652:A_N I *D sky130_fd_sc_hd__nand2b_2
*I *1834:A I *D sky130_fd_sc_hd__nor3_2
*I *2110:Q O *D sky130_fd_sc_hd__dfrtp_2
*CAP
1 *1808:A 0
2 *1807:B1 0
3 *1835:A1 2.30602e-05
4 *1652:A_N 0
5 *1834:A 0.000105322
6 *2110:Q 0.000156092
7 *751:57 0.000207873
8 *751:49 0.000240093
9 *751:33 0.000132127
10 *751:16 0.000373896
11 *751:14 0.000492194
12 *751:8 0.000521
13 *751:16 *1834:C 5.73288e-05
14 *1808:C *751:49 4.21921e-05
15 *1808:C *751:57 5.58003e-05
16 *1811:B *751:8 8.70594e-05
17 *1834:B *1834:A 6.17437e-06
18 *1834:B *751:16 3.74951e-05
19 *1835:B1 *1835:A1 3.91386e-05
20 *1835:B1 *751:14 1.24376e-05
21 *361:12 *751:8 0.000144805
22 *361:12 *751:14 1.51481e-05
23 *362:26 *1834:A 8.74421e-05
24 *362:26 *751:16 0.000297465
25 *363:14 *751:14 0.000272312
26 *365:30 *751:14 0.000138911
27 *459:10 *751:8 5.27729e-05
28 *472:8 *751:14 1.21972e-05
29 *472:8 *751:16 1.40958e-05
30 *676:27 *751:8 6.51997e-06
31 *676:27 *751:14 5.90853e-05
32 *750:19 *751:57 0.000189857
33 *750:23 *751:57 4.19743e-05
34 *750:31 *751:14 7.45175e-05
35 *750:35 *1835:A1 3.91386e-05
36 *750:35 *751:16 0.000223698
37 *750:41 *751:33 4.22694e-05
*RES
1 *2110:Q *751:8 42.3707 
2 *751:8 *751:14 22.4571 
3 *751:14 *751:16 4.43286 
4 *751:16 *1834:A 25.5686 
5 *751:16 *751:33 32.61 
6 *751:33 *1652:A_N 23 
7 *751:14 *1835:A1 23.8493 
8 *751:8 *751:49 15.6214 
9 *751:49 *751:57 34.3293 
10 *751:57 *1807:B1 23 
11 *751:49 *1808:A 23 
*END

*D_NET *752 0.0100344
*CONN
*I *1658:B I *D sky130_fd_sc_hd__or3b_2
*I *1814:A2 I *D sky130_fd_sc_hd__a31oi_2
*I *1811:A I *D sky130_fd_sc_hd__or2_2
*I *1810:A I *D sky130_fd_sc_hd__nand2_2
*I *1815:B I *D sky130_fd_sc_hd__and4_2
*I *1653:C I *D sky130_fd_sc_hd__or4b_2
*I *1834:C I *D sky130_fd_sc_hd__nor3_2
*I *1835:A3 I *D sky130_fd_sc_hd__a311o_2
*I *2111:Q O *D sky130_fd_sc_hd__dfrtp_2
*CAP
1 *1658:B 0.000432696
2 *1814:A2 0
3 *1811:A 0.000101755
4 *1810:A 0.000170575
5 *1815:B 0
6 *1653:C 0
7 *1834:C 0.000237623
8 *1835:A3 2.32701e-05
9 *2111:Q 0.000472954
10 *752:84 0.000790775
11 *752:26 0.000419212
12 *752:20 0.000498784
13 *752:16 0.000788347
14 *752:12 0.000716879
15 *752:10 0.000607298
16 *752:6 0.00123815
17 *1658:B *753:66 6.07611e-06
18 *752:16 *753:32 0.000380342
19 *752:16 *754:44 0
20 *752:20 *1653:A 9.89024e-05
21 *752:20 *1653:D_N 0.000311554
22 *752:84 *753:66 5.33917e-05
23 *1656:A *752:26 0.000164282
24 *1658:A *1658:B 0.000185434
25 *1659:B *1834:C 2.24608e-05
26 *1659:B *752:26 7.39034e-05
27 *1815:D *1658:B 0
28 *1815:D *752:84 4.21594e-06
29 *1834:B *1834:C 5.56279e-05
30 *2111:CLK *752:10 3.06889e-05
31 *2111:CLK *752:12 0.000141038
32 *2111:CLK *752:16 0.000283312
33 *162:10 *752:10 3.28925e-06
34 *162:10 *752:84 0
35 *163:8 *1658:B 0.000116314
36 *239:10 *752:84 0.000273491
37 *363:6 *752:20 2.07355e-05
38 *363:6 *752:26 1.59094e-05
39 *365:10 *1658:B 3.70094e-05
40 *366:23 *752:16 3.3746e-05
41 *459:43 *1810:A 2.87706e-05
42 *459:58 *752:84 0.000140934
43 *461:8 *1811:A 5.28551e-05
44 *461:8 *752:12 3.96108e-05
45 *462:8 *1658:B 0.000133532
46 *463:8 *1658:B 0
47 *472:8 *1835:A3 5.3304e-05
48 *540:54 *752:16 0.00041036
49 *632:10 *1810:A 0.000142678
50 *632:10 *752:12 3.41301e-05
51 *632:10 *752:16 8.0612e-06
52 *676:27 *752:16 0
53 *750:35 *1835:A3 5.3304e-05
54 *750:41 *1834:C 1.01436e-05
55 *750:41 *752:26 5.93174e-05
56 *751:16 *1834:C 5.73288e-05
*RES
1 *2111:Q *752:6 28.8621 
2 *752:6 *752:10 19.9093 
3 *752:10 *752:12 2.96214 
4 *752:12 *752:16 25.005 
5 *752:16 *752:20 6.83571 
6 *752:20 *752:26 18.9357 
7 *752:26 *1835:A3 38.6214 
8 *752:26 *1834:C 41.6664 
9 *752:20 *1653:C 23 
10 *752:16 *1815:B 23 
11 *752:12 *1810:A 40.9 
12 *752:10 *1811:A 40.2579 
13 *752:6 *752:84 24.6529 
14 *752:84 *1814:A2 38 
15 *752:84 *1658:B 47.1557 
*END

*D_NET *753 0.00588312
*CONN
*I *2229:A I *D sky130_fd_sc_hd__dlygate4sd3_1
*I *1814:A1 I *D sky130_fd_sc_hd__a31oi_2
*I *1815:A I *D sky130_fd_sc_hd__and4_2
*I *1653:A I *D sky130_fd_sc_hd__or4b_2
*I *1659:A I *D sky130_fd_sc_hd__or4_2
*I *1836:D_N I *D sky130_fd_sc_hd__or4b_2
*I *2112:Q O *D sky130_fd_sc_hd__dfrtp_2
*CAP
1 *2229:A 0
2 *1814:A1 0
3 *1815:A 0
4 *1653:A 0.000229671
5 *1659:A 0
6 *1836:D_N 0.000177996
7 *2112:Q 0
8 *753:66 0.000289453
9 *753:56 0.000466765
10 *753:32 0.000435831
11 *753:12 0.000239569
12 *753:10 0.00111621
13 *753:4 0.00102579
14 *1653:A *1653:D_N 0.000227208
15 *753:32 *1653:D_N 2.32101e-05
16 *753:66 *2245:A 5.50049e-05
17 *753:66 *754:23 1.12487e-05
18 *1658:B *753:66 6.07611e-06
19 *239:10 *753:66 0.000252131
20 *363:6 *1653:A 7.53384e-06
21 *363:14 *1836:D_N 0.000223698
22 *366:23 *753:32 0.000167452
23 *366:38 *753:32 0
24 *370:10 *753:10 0.000107016
25 *370:10 *753:12 6.17437e-06
26 *370:10 *753:66 0
27 *462:8 *753:66 1.01436e-05
28 *673:10 *753:66 0
29 *673:21 *753:56 4.3407e-05
30 *673:21 *753:66 0
31 *676:27 *753:32 0
32 *700:84 *753:56 0.000128723
33 *700:94 *753:56 0.00010018
34 *752:16 *753:32 0.000380342
35 *752:20 *1653:A 9.89024e-05
36 *752:84 *753:66 5.33917e-05
*RES
1 *2112:Q *753:4 23 
2 *753:4 *753:10 11.4964 
3 *753:10 *753:12 1.09786 
4 *753:12 *1836:D_N 26.48 
5 *753:12 *1659:A 23 
6 *753:10 *753:32 35.6964 
7 *753:32 *1653:A 28.4271 
8 *753:32 *1815:A 23 
9 *753:4 *753:56 34.9093 
10 *753:56 *753:66 37.0221 
11 *753:66 *1814:A1 23 
12 *753:56 *2229:A 23 
*END

*D_NET *754 0.00442432
*CONN
*I *1815:C I *D sky130_fd_sc_hd__and4_2
*I *1653:D_N I *D sky130_fd_sc_hd__or4b_2
*I *1814:B1 I *D sky130_fd_sc_hd__a31oi_2
*I *2245:A I *D sky130_fd_sc_hd__dlygate4sd3_1
*I *1658:C_N I *D sky130_fd_sc_hd__or3b_2
*I *2113:Q O *D sky130_fd_sc_hd__dfrtp_2
*CAP
1 *1815:C 2.34823e-05
2 *1653:D_N 0.000104155
3 *1814:B1 0
4 *2245:A 0.000411191
5 *1658:C_N 0.000242616
6 *2113:Q 0.000376474
7 *754:48 0.000155698
8 *754:44 0.000132934
9 *754:23 0.000377424
10 *754:8 0.000690197
11 *1653:A *1653:D_N 0.000227208
12 *1658:A *1658:C_N 5.70419e-05
13 *1815:D *754:44 7.30978e-05
14 *1815:D *754:48 0.00010018
15 *369:10 *1658:C_N 0.000105386
16 *369:10 *754:23 5.36457e-05
17 *462:8 *1658:C_N 0.000277714
18 *462:8 *754:23 0.000132665
19 *540:48 *754:8 0.000260631
20 *540:54 *1653:D_N 1.32314e-05
21 *540:54 *754:44 6.63801e-05
22 *540:54 *754:48 0.000141954
23 *752:16 *754:44 0
24 *752:20 *1653:D_N 0.000311554
25 *753:32 *1653:D_N 2.32101e-05
26 *753:66 *2245:A 5.50049e-05
27 *753:66 *754:23 1.12487e-05
*RES
1 *2113:Q *754:8 43.3857 
2 *754:8 *1658:C_N 44.67 
3 *754:8 *754:23 17.2579 
4 *754:23 *2245:A 27.9093 
5 *754:23 *1814:B1 23 
6 *2245:A *754:44 40.9621 
7 *754:44 *754:48 16.5743 
8 *754:48 *1653:D_N 26.9564 
9 *754:48 *1815:C 23.4971 
*END

*D_NET *755 0.00129441
*CONN
*I *1817:A I *D sky130_fd_sc_hd__and2_2
*I *2194:A I *D sky130_fd_sc_hd__dlygate4sd3_1
*I *1654:C_N I *D sky130_fd_sc_hd__or3b_2
*I *2114:Q O *D sky130_fd_sc_hd__dfrtp_2
*CAP
1 *1817:A 2.44422e-05
2 *2194:A 0
3 *1654:C_N 0
4 *2114:Q 0.000111547
5 *755:19 0.000225734
6 *755:6 0.000312839
7 *1654:A *755:19 4.6318e-06
8 *1817:B *1817:A 9.84851e-05
9 *2393:A *755:6 0.000225399
10 *2393:A *755:19 9.84794e-05
11 *365:10 *755:19 0.000138718
12 *464:10 *1817:A 5.41385e-05
13 *464:10 *755:19 0
14 *674:8 *755:19 0
*RES
1 *2114:Q *755:6 25.5271 
2 *755:6 *1654:C_N 23 
3 *755:6 *755:19 34.06 
4 *755:19 *2194:A 23 
5 *755:19 *1817:A 24.0979 
*END

*D_NET *756 0.00824255
*CONN
*I *1704:A I *D sky130_fd_sc_hd__or2_2
*I *1689:A I *D sky130_fd_sc_hd__nand2_2
*I *1690:C I *D sky130_fd_sc_hd__and4_2
*I *1702:A1 I *D sky130_fd_sc_hd__a21oi_2
*I *1684:B I *D sky130_fd_sc_hd__and3_2
*I *1677:D I *D sky130_fd_sc_hd__or4_2
*I *1647:C I *D sky130_fd_sc_hd__and3_2
*I *2066:Q O *D sky130_fd_sc_hd__dfrtp_2
*CAP
1 *1704:A 0
2 *1689:A 0.000331529
3 *1690:C 0.00013297
4 *1702:A1 0.00033264
5 *1684:B 0.000348027
6 *1677:D 0.000138491
7 *1647:C 0
8 *2066:Q 0.000773621
9 *756:91 0.000118709
10 *756:74 0.00101758
11 *756:18 0.000524572
12 *756:12 0.000920388
13 *756:10 0.000657178
14 *756:6 0.000477507
15 *1677:D *769:18 5.3304e-05
16 *1684:B *1684:A 9.88574e-06
17 *1690:C *1690:B 1.76557e-05
18 *756:10 *763:12 0
19 *756:12 *764:27 0
20 *756:18 *1677:C 6.38845e-05
21 *756:18 *763:22 0.000309215
22 *756:18 *764:37 0
23 *756:18 *769:18 1.83667e-05
24 *1702:B1 *1702:A1 0.000188927
25 *1705:A *1702:A1 0.000119357
26 *2066:CLK *1689:A 2.81066e-05
27 *2066:D *1689:A 5.58003e-05
28 *302:10 *756:10 0
29 *356:10 *756:18 3.8931e-05
30 *358:10 *1677:D 4.93944e-05
31 *358:10 *756:18 2.93845e-05
32 *359:38 *1684:B 0.000100061
33 *385:29 *756:12 6.42827e-05
34 *385:29 *756:18 0.00020878
35 *385:48 *1702:A1 0.000140259
36 *385:48 *756:10 6.7177e-06
37 *385:48 *756:12 1.62015e-05
38 *387:10 *1684:B 1.5769e-05
39 *387:14 *1702:A1 0.000265472
40 *387:24 *756:12 0
41 *398:10 *756:10 0
42 *399:10 *1702:A1 9.8203e-05
43 *400:8 *756:91 2.99696e-05
44 *673:34 *756:91 5.5792e-05
45 *673:51 *1690:C 0.000182561
46 *673:51 *756:6 0.0001396
47 *673:51 *756:74 0.000160172
48 *700:84 *1689:A 3.28357e-06
*RES
1 *2066:Q *756:6 26.0036 
2 *756:6 *756:10 17.2579 
3 *756:10 *756:12 3.66643 
4 *756:12 *756:18 24.2179 
5 *756:18 *1647:C 23 
6 *756:18 *1677:D 25.0714 
7 *756:12 *1684:B 42.4329 
8 *756:10 *1702:A1 46.9071 
9 *756:6 *1690:C 26.3971 
10 *2066:Q *756:74 30.2914 
11 *756:74 *1689:A 27.3293 
12 *756:74 *756:91 32.175 
13 *756:91 *1704:A 23 
*END

*D_NET *757 0.0056672
*CONN
*I *1838:B I *D sky130_fd_sc_hd__or4bb_2
*I *1662:A I *D sky130_fd_sc_hd__and3_2
*I *1673:A_N I *D sky130_fd_sc_hd__and2b_2
*I *1676:B I *D sky130_fd_sc_hd__or4_2
*I *2076:Q O *D sky130_fd_sc_hd__dfrtp_2
*CAP
1 *1838:B 0
2 *1662:A 0
3 *1673:A_N 0
4 *1676:B 2.34823e-05
5 *2076:Q 0.000267456
6 *757:51 0.000622094
7 *757:39 0.00106373
8 *757:24 0.000761447
9 *757:14 0.000348738
10 *757:10 0.000319866
11 *757:10 *758:22 0.000132547
12 *757:10 *768:20 1.39826e-05
13 *757:14 *1838:A 1.21972e-05
14 *757:24 *1676:A 2.64616e-05
15 *757:24 *1838:A 3.7122e-06
16 *757:24 *768:20 3.71251e-05
17 *757:24 *769:33 0.000128948
18 *757:24 *770:56 3.62219e-05
19 *757:39 *771:16 0.000306338
20 *757:39 *771:20 5.24911e-05
21 *1662:C *757:39 5.50106e-05
22 *1680:B *757:24 5.61255e-06
23 *1681:A2 *757:51 0
24 *2115:CLK *757:51 0.000191255
25 *382:8 *757:10 0.000239819
26 *382:8 *757:24 3.31683e-05
27 *385:20 *757:51 0
28 *475:8 *757:10 0.000137694
29 *540:14 *757:51 0.000102702
30 *540:21 *757:51 7.63072e-05
31 *542:22 *757:24 3.83498e-05
32 *542:22 *757:39 0.000100733
33 *674:44 *757:39 0.000345053
34 *674:44 *757:51 5.56356e-05
35 *696:61 *757:51 3.3123e-05
36 *696:112 *757:51 9.59004e-05
*RES
1 *2076:Q *757:10 44.4007 
2 *757:10 *757:14 15.6214 
3 *757:14 *757:24 35.1786 
4 *757:24 *1676:B 23.4971 
5 *757:24 *757:39 10.2121 
6 *757:39 *757:51 43.6714 
7 *757:51 *1673:A_N 23 
8 *757:39 *1662:A 23 
9 *757:14 *1838:B 23 
*END

*D_NET *758 0.00733107
*CONN
*I *2201:A I *D sky130_fd_sc_hd__dlygate4sd3_1
*I *1663:A I *D sky130_fd_sc_hd__and2_2
*I *1676:A I *D sky130_fd_sc_hd__or4_2
*I *1838:A I *D sky130_fd_sc_hd__or4bb_2
*I *2077:Q O *D sky130_fd_sc_hd__dfrtp_2
*CAP
1 *2201:A 3.8745e-05
2 *1663:A 4.20282e-05
3 *1676:A 0.000212452
4 *1838:A 8.6343e-05
5 *2077:Q 0.000291262
6 *758:46 0.000124036
7 *758:22 0.000678572
8 *758:20 0.00113827
9 *758:14 0.00109302
10 *758:22 *759:21 0.000128334
11 *1663:B *1663:A 9.91024e-05
12 *1664:C *758:22 3.47781e-05
13 *1669:A2 *758:22 0.000242275
14 *1672:B *758:14 0.000171906
15 *1672:B *758:46 5.01986e-05
16 *1680:B *1838:A 0.000135037
17 *374:6 *1663:A 0.000139969
18 *374:6 *2201:A 0.000176497
19 *374:6 *758:20 0.000533716
20 *374:19 *758:20 0.000513887
21 *381:10 *1676:A 0.000245157
22 *381:10 *758:22 0.000186832
23 *383:25 *1676:A 0
24 *475:8 *1676:A 0.000236924
25 *475:8 *758:22 5.80693e-05
26 *539:10 *758:14 0
27 *542:22 *1676:A 0.000308946
28 *696:20 *1663:A 2.02872e-05
29 *696:20 *2201:A 0.000103415
30 *700:35 *758:20 2.65505e-05
31 *701:92 *758:14 3.95483e-05
32 *757:10 *758:22 0.000132547
33 *757:14 *1838:A 1.21972e-05
34 *757:24 *1676:A 2.64616e-05
35 *757:24 *1838:A 3.7122e-06
*RES
1 *2077:Q *758:14 43.8829 
2 *758:14 *758:20 42.0557 
3 *758:20 *758:22 9.30071 
4 *758:22 *1838:A 39.5743 
5 *758:22 *1676:A 44.7943 
6 *758:14 *758:46 15.8493 
7 *758:46 *1663:A 24.5743 
8 *758:46 *2201:A 25.0507 
*END

*D_NET *759 0.00246577
*CONN
*I *1664:B I *D sky130_fd_sc_hd__and3_2
*I *1678:D I *D sky130_fd_sc_hd__or4_2
*I *1669:A1 I *D sky130_fd_sc_hd__a21oi_2
*I *2212:A I *D sky130_fd_sc_hd__dlygate4sd3_1
*I *2078:Q O *D sky130_fd_sc_hd__dfrtp_2
*CAP
1 *1664:B 4.38946e-05
2 *1678:D 0.000149612
3 *1669:A1 3.69783e-05
4 *2212:A 0
5 *2078:Q 0.000126879
6 *759:21 0.000401907
7 *759:10 0.000421139
8 *759:6 0.000376596
9 *759:10 *760:12 0.000219882
10 *759:10 *760:27 0
11 *759:21 *1678:C 0
12 *759:21 *760:27 0
13 *1664:C *1664:B 5.14746e-06
14 *1664:C *759:6 1.55671e-05
15 *1664:C *759:10 4.31263e-05
16 *1664:C *759:21 4.91387e-05
17 *1669:B1 *1678:D 0.000100486
18 *206:8 *759:10 0
19 *584:10 *759:21 0.000347084
20 *585:10 *759:10 0
21 *758:22 *759:21 0.000128334
*RES
1 *2078:Q *759:6 24.5743 
2 *759:6 *759:10 19.7229 
3 *759:10 *2212:A 38 
4 *759:10 *759:21 20.7793 
5 *759:21 *1669:A1 23.6214 
6 *759:21 *1678:D 25.5479 
7 *759:6 *1664:B 23.6214 
*END

*D_NET *760 0.00256067
*CONN
*I *1678:C I *D sky130_fd_sc_hd__or4_2
*I *2186:A I *D sky130_fd_sc_hd__dlygate4sd3_1
*I *1664:A I *D sky130_fd_sc_hd__and3_2
*I *2079:Q O *D sky130_fd_sc_hd__dfrtp_2
*CAP
1 *1678:C 0.000287541
2 *2186:A 7.70667e-05
3 *1664:A 0
4 *2079:Q 8.57232e-05
5 *760:27 0.000703962
6 *760:12 0.000131414
7 *760:6 0.000556492
8 *1678:C *762:35 1.12796e-05
9 *1664:C *760:12 0.000166666
10 *206:8 *760:12 0
11 *378:8 *1678:C 0
12 *383:12 *1678:C 3.08087e-05
13 *535:245 *1678:C 6.16881e-06
14 *541:12 *1678:C 0
15 *584:10 *1678:C 0
16 *585:10 *1678:C 7.03869e-05
17 *585:10 *760:27 8.11136e-05
18 *701:92 *760:6 3.3577e-05
19 *701:92 *760:27 9.85891e-05
20 *759:10 *760:12 0.000219882
21 *759:10 *760:27 0
22 *759:21 *1678:C 0
23 *759:21 *760:27 0
*RES
1 *2079:Q *760:6 24.0979 
2 *760:6 *760:12 34.3707 
3 *760:12 *1664:A 23 
4 *760:6 *760:27 21.0279 
5 *760:27 *2186:A 39.0979 
6 *760:27 *1678:C 43.5929 
*END

*D_NET *761 0.00508948
*CONN
*I *1678:B I *D sky130_fd_sc_hd__or4_2
*I *1665:A I *D sky130_fd_sc_hd__nand2_2
*I *1667:A I *D sky130_fd_sc_hd__or2_2
*I *2080:Q O *D sky130_fd_sc_hd__dfrtp_2
*CAP
1 *1678:B 0
2 *1665:A 0
3 *1667:A 0
4 *2080:Q 0.000216291
5 *761:40 0.000851815
6 *761:24 0.000430985
7 *761:14 0.000776269
8 *761:8 0.00141339
9 *761:40 *762:35 3.13122e-05
10 *2129:A *761:40 2.83509e-05
11 *2166:A *761:24 4.6595e-05
12 *207:8 *761:14 6.437e-05
13 *207:8 *761:40 8.36198e-05
14 *375:17 *761:24 3.76702e-05
15 *375:30 *761:24 0.000143655
16 *376:8 *761:14 5.26101e-05
17 *383:12 *761:40 6.89359e-06
18 *541:8 *761:40 0.00021241
19 *578:10 *761:14 0.000100733
20 *698:8 *761:24 4.6318e-06
21 *699:10 *761:14 1.83667e-05
22 *699:10 *761:24 0
23 *699:23 *761:14 0.000190528
24 *699:23 *761:40 2.37243e-05
25 *699:32 *761:40 3.96108e-05
26 *700:10 *761:24 6.25829e-05
27 *700:21 *761:14 0
28 *700:21 *761:24 0.00025307
29 *700:46 *761:14 0
*RES
1 *2080:Q *761:8 40.5271 
2 *761:8 *761:14 23.5343 
3 *761:14 *761:24 38.4721 
4 *761:24 *1667:A 23 
5 *761:14 *1665:A 23 
6 *761:8 *761:40 27.1593 
7 *761:40 *1678:B 23 
*END

*D_NET *762 0.00433518
*CONN
*I *1678:A I *D sky130_fd_sc_hd__or4_2
*I *2181:A I *D sky130_fd_sc_hd__dlygate4sd3_1
*I *2081:Q O *D sky130_fd_sc_hd__dfrtp_2
*CAP
1 *1678:A 0
2 *2181:A 0.000218787
3 *2081:Q 0.000507845
4 *762:35 0.00113244
5 *762:8 0.00185908
6 *1678:C *762:35 1.12796e-05
7 *1970:A *2181:A 0.000233367
8 *2129:A *762:35 0.000120765
9 *208:8 *2181:A 0
10 *208:8 *762:35 0
11 *383:12 *762:35 0.000102971
12 *541:8 *762:35 0.00011733
13 *699:10 *2181:A 0
14 *699:23 *2181:A 0
15 *699:23 *762:35 0
16 *761:40 *762:35 3.13122e-05
*RES
1 *2081:Q *762:8 44.3386 
2 *762:8 *2181:A 42.4329 
3 *762:8 *762:35 34.0157 
4 *762:35 *1678:A 23 
*END

*D_NET *763 0.00582895
*CONN
*I *2241:A I *D sky130_fd_sc_hd__dlygate4sd3_1
*I *1690:B I *D sky130_fd_sc_hd__and4_2
*I *1684:A I *D sky130_fd_sc_hd__and3_2
*I *1839:B I *D sky130_fd_sc_hd__nand3b_2
*I *1647:B I *D sky130_fd_sc_hd__and3_2
*I *1677:C I *D sky130_fd_sc_hd__or4_2
*I *2067:Q O *D sky130_fd_sc_hd__dfrtp_2
*CAP
1 *2241:A 3.17654e-05
2 *1690:B 0.000228154
3 *1684:A 6.70158e-05
4 *1839:B 0.000151499
5 *1647:B 0
6 *1677:C 7.78729e-05
7 *2067:Q 0.000104819
8 *763:22 0.000217715
9 *763:18 0.000621604
10 *763:12 0.000625627
11 *763:10 0.000586727
12 *763:8 0.000266809
13 *1839:B *1645:A 6.27067e-05
14 *1839:B *1645:B 9.84851e-05
15 *1839:B *1839:C 1.08003e-05
16 *1839:B *764:37 4.34745e-05
17 *1839:B *765:25 1.76557e-05
18 *1839:B *766:28 0.00014196
19 *763:18 *1645:A 2.64616e-05
20 *763:18 *1661:A 0
21 *763:18 *773:14 5.60406e-05
22 *1684:B *1684:A 9.88574e-06
23 *1690:C *1690:B 1.76557e-05
24 *1703:A *763:10 0.000126363
25 *1703:A *763:12 0.000298922
26 *1956:A *2241:A 0.000145171
27 *194:10 *2241:A 7.95762e-05
28 *194:10 *763:8 3.88725e-05
29 *356:10 *1677:C 2.96154e-05
30 *356:10 *763:22 0.000156153
31 *358:10 *1677:C 0.000181919
32 *359:6 *1677:C 0.000180224
33 *359:38 *763:18 0.00010762
34 *385:29 *763:12 5.10756e-05
35 *385:29 *763:18 0.000144154
36 *385:48 *763:12 3.62323e-05
37 *387:10 *1684:A 5.50049e-05
38 *387:10 *763:12 0.000125733
39 *387:10 *763:18 3.18198e-05
40 *673:51 *1690:B 0.000202663
41 *756:10 *763:12 0
42 *756:18 *1677:C 6.38845e-05
43 *756:18 *763:22 0.000309215
*RES
1 *2067:Q *763:8 39.9057 
2 *763:8 *763:10 2.61 
3 *763:10 *763:12 5.77929 
4 *763:12 *763:18 22.0221 
5 *763:18 *763:22 19.3707 
6 *763:22 *1677:C 40.9 
7 *763:22 *1647:B 38 
8 *763:18 *1839:B 26.9771 
9 *763:12 *1684:A 39.0979 
10 *763:10 *1690:B 42.9093 
11 *763:8 *2241:A 39.5743 
*END

*D_NET *764 0.00459227
*CONN
*I *1699:A I *D sky130_fd_sc_hd__nor2_2
*I *1685:B I *D sky130_fd_sc_hd__and3_2
*I *1646:D I *D sky130_fd_sc_hd__and4_2
*I *1839:A_N I *D sky130_fd_sc_hd__nand3b_2
*I *1645:B I *D sky130_fd_sc_hd__nand2_2
*I *1690:A I *D sky130_fd_sc_hd__and4_2
*I *2068:Q O *D sky130_fd_sc_hd__dfrtp_2
*CAP
1 *1699:A 0
2 *1685:B 6.92734e-05
3 *1646:D 0
4 *1839:A_N 0
5 *1645:B 2.14044e-05
6 *1690:A 7.6153e-05
7 *2068:Q 0.000289373
8 *764:59 8.16326e-05
9 *764:53 0.000410512
10 *764:37 0.000365008
11 *764:27 0.000810048
12 *764:25 0.000314406
13 *764:14 0.000329201
14 *764:10 0.000434854
15 *1645:B *1645:A 7.97646e-05
16 *1685:B *1685:A 2.7237e-05
17 *764:25 *765:10 0
18 *764:27 *765:10 0
19 *764:27 *765:16 0
20 *764:37 *1645:A 2.93747e-05
21 *764:37 *773:8 0
22 *764:53 *1685:A 2.45549e-06
23 *764:59 *765:16 5.26101e-05
24 *764:59 *773:8 8.94394e-05
25 *1698:B *764:14 1.94812e-05
26 *1839:B *1645:B 9.84851e-05
27 *1839:B *764:37 4.34745e-05
28 *2068:CLK *764:10 3.20631e-05
29 *195:10 *764:10 1.85413e-05
30 *356:10 *764:37 6.12496e-06
31 *385:56 *1690:A 5.3304e-05
32 *385:56 *764:14 5.58003e-05
33 *385:56 *764:25 0.000222955
34 *387:24 *764:27 8.62876e-05
35 *387:24 *764:53 3.38187e-05
36 *394:10 *764:25 4.75028e-05
37 *397:8 *764:10 0.000220674
38 *397:8 *764:25 0
39 *398:10 *764:25 6.61686e-06
40 *398:10 *764:27 4.6318e-06
41 *542:73 *764:10 9.5258e-05
42 *542:88 *764:10 6.45006e-05
43 *756:12 *764:27 0
44 *756:18 *764:37 0
*RES
1 *2068:Q *764:10 44.9186 
2 *764:10 *764:14 17.5271 
3 *764:14 *1690:A 24.0979 
4 *764:14 *764:25 18.3143 
5 *764:25 *764:27 3.66643 
6 *764:27 *764:37 19.9507 
7 *764:37 *1645:B 24.0979 
8 *764:37 *1839:A_N 23 
9 *764:27 *764:53 18.48 
10 *764:53 *764:59 32.2579 
11 *764:59 *1646:D 23 
12 *764:53 *1685:B 24.0979 
13 *764:25 *1699:A 38 
*END

*D_NET *765 0.00617291
*CONN
*I *1697:A I *D sky130_fd_sc_hd__or2_2
*I *1691:A I *D sky130_fd_sc_hd__nand2_2
*I *1685:A I *D sky130_fd_sc_hd__and3_2
*I *1839:C I *D sky130_fd_sc_hd__nand3b_2
*I *1645:A I *D sky130_fd_sc_hd__nand2_2
*I *1646:C I *D sky130_fd_sc_hd__and4_2
*I *2069:Q O *D sky130_fd_sc_hd__dfrtp_2
*CAP
1 *1697:A 1.62805e-05
2 *1691:A 9.57927e-05
3 *1685:A 6.60572e-05
4 *1839:C 1.85088e-05
5 *1645:A 0.000131998
6 *1646:C 0
7 *2069:Q 0.000438793
8 *765:60 0.000640851
9 *765:25 0.000329808
10 *765:16 0.000395285
11 *765:10 0.000564573
12 *765:8 0.0012501
13 *1645:A *773:14 0.000205936
14 *765:16 *766:18 5.67058e-05
15 *765:16 *766:28 5.67058e-05
16 *765:16 *767:25 1.19796e-05
17 *765:25 *766:28 9.51484e-05
18 *765:25 *773:14 0.000356724
19 *1645:B *1645:A 7.97646e-05
20 *1685:B *1685:A 2.7237e-05
21 *1700:A *1691:A 5.00237e-05
22 *1700:A *1697:A 5.55743e-06
23 *1700:A *765:60 0.000102944
24 *1839:B *1645:A 6.27067e-05
25 *1839:B *1839:C 1.08003e-05
26 *1839:B *765:25 1.76557e-05
27 *2069:D *765:8 6.17437e-06
28 *195:10 *765:60 0.00012101
29 *356:10 *1645:A 5.50049e-05
30 *387:24 *1685:A 0.00010018
31 *388:12 *765:16 0
32 *389:44 *765:16 0
33 *393:17 *1691:A 0.000145171
34 *394:10 *1691:A 0.0001296
35 *394:10 *765:60 3.76959e-05
36 *395:10 *765:10 0
37 *396:10 *765:60 0.000189848
38 *397:8 *765:10 0
39 *397:8 *765:60 0
40 *398:10 *765:60 1.61385e-05
41 *476:10 *765:25 3.71369e-05
42 *542:73 *765:10 0
43 *542:73 *765:60 0
44 *542:88 *765:60 3.56295e-05
45 *699:66 *765:60 0.000100477
46 *763:18 *1645:A 2.64616e-05
47 *764:25 *765:10 0
48 *764:27 *765:10 0
49 *764:27 *765:16 0
50 *764:37 *1645:A 2.93747e-05
51 *764:53 *1685:A 2.45549e-06
52 *764:59 *765:16 5.26101e-05
*RES
1 *2069:Q *765:8 45.7679 
2 *765:8 *765:10 5.075 
3 *765:10 *765:16 19.7643 
4 *765:16 *1646:C 23 
5 *765:16 *765:25 5.75857 
6 *765:25 *1645:A 27.6193 
7 *765:25 *1839:C 23.8493 
8 *765:10 *1685:A 39.5743 
9 *765:8 *765:60 27.1179 
10 *765:60 *1691:A 26.5007 
11 *765:60 *1697:A 23.4971 
*END

*D_NET *766 0.00487686
*CONN
*I *2227:A I *D sky130_fd_sc_hd__dlygate4sd3_1
*I *1686:A I *D sky130_fd_sc_hd__and2_2
*I *1646:B I *D sky130_fd_sc_hd__and4_2
*I *1837:B I *D sky130_fd_sc_hd__or4bb_2
*I *1677:B I *D sky130_fd_sc_hd__or4_2
*I *2070:Q O *D sky130_fd_sc_hd__dfrtp_2
*CAP
1 *2227:A 0
2 *1686:A 0
3 *1646:B 0
4 *1837:B 0
5 *1677:B 5.25057e-05
6 *2070:Q 0
7 *766:60 0.000111515
8 *766:28 0.000618436
9 *766:18 0.000798762
10 *766:14 0.00110502
11 *766:4 0.000983703
12 *1677:B *767:57 0
13 *1677:B *770:56 8.85189e-05
14 *766:14 *767:14 9.84794e-05
15 *766:18 *1646:A 5.41288e-05
16 *766:18 *767:14 0.000134989
17 *766:28 *767:57 0
18 *766:28 *770:56 7.79942e-05
19 *1839:B *766:28 0.00014196
20 *1959:A *766:14 0
21 *2070:D *766:14 3.7122e-06
22 *356:10 *766:28 6.22475e-05
23 *357:8 *766:28 0
24 *388:25 *766:14 1.01436e-05
25 *389:10 *766:18 9.84794e-05
26 *476:10 *766:28 9.84851e-05
27 *542:43 *766:14 5.26101e-05
28 *542:51 *766:14 3.67526e-05
29 *542:60 *766:14 2.64459e-05
30 *542:73 *766:14 1.34094e-05
31 *699:58 *766:60 0
32 *700:59 *766:14 0
33 *765:16 *766:18 5.67058e-05
34 *765:16 *766:28 5.67058e-05
35 *765:25 *766:28 9.51484e-05
*RES
1 *2070:Q *766:4 23 
2 *766:4 *766:14 42.8843 
3 *766:14 *766:18 5.40643 
4 *766:18 *766:28 24.9429 
5 *766:28 *1677:B 39.2014 
6 *766:28 *1837:B 38 
7 *766:18 *1646:B 23 
8 *766:14 *1686:A 23 
9 *766:4 *766:60 31.9057 
10 *766:60 *2227:A 23 
*END

*D_NET *767 0.00698694
*CONN
*I *1688:B I *D sky130_fd_sc_hd__and3_2
*I *2238:A I *D sky130_fd_sc_hd__dlygate4sd3_1
*I *1837:C_N I *D sky130_fd_sc_hd__or4bb_2
*I *1677:A I *D sky130_fd_sc_hd__or4_2
*I *1687:A I *D sky130_fd_sc_hd__nand2_2
*I *1646:A I *D sky130_fd_sc_hd__and4_2
*I *2071:Q O *D sky130_fd_sc_hd__dfrtp_2
*CAP
1 *1688:B 0
2 *2238:A 0
3 *1837:C_N 0
4 *1677:A 2.03433e-05
5 *1687:A 5.44481e-05
6 *1646:A 4.996e-05
7 *2071:Q 0.000568709
8 *767:75 0.000281617
9 *767:57 0.000390844
10 *767:42 0.00069954
11 *767:25 0.00064481
12 *767:14 0.00066539
13 *767:12 0.000562086
14 *767:6 0.00109899
15 *767:25 *773:8 0
16 *767:42 *768:61 0.000308914
17 *767:57 *1837:A 2.02872e-05
18 *767:57 *770:41 5.3304e-05
19 *767:57 *770:56 0.000125213
20 *767:75 *769:63 0
21 *1677:B *767:57 0
22 *1840:B *767:57 5.41288e-05
23 *1960:A *767:75 2.93845e-05
24 *2071:D *767:12 7.27152e-05
25 *2071:D *767:14 0.000123944
26 *198:10 *767:75 0
27 *307:10 *767:75 0.000195238
28 *357:8 *767:25 0
29 *358:10 *1677:A 0.00010018
30 *358:10 *767:42 0.00021477
31 *359:6 *1677:A 5.41288e-05
32 *359:6 *767:42 7.44354e-05
33 *383:25 *1687:A 0
34 *383:25 *767:25 0
35 *388:12 *767:25 0
36 *389:10 *767:25 0
37 *389:14 *1687:A 0
38 *389:14 *767:25 0
39 *475:8 *767:57 0.000105175
40 *542:43 *767:25 0
41 *699:58 *767:75 0.000118807
42 *765:16 *767:25 1.19796e-05
43 *766:14 *767:14 9.84794e-05
44 *766:18 *1646:A 5.41288e-05
45 *766:18 *767:14 0.000134989
46 *766:28 *767:57 0
*RES
1 *2071:Q *767:6 30.2914 
2 *767:6 *767:12 3.99786 
3 *767:12 *767:14 6.815 
4 *767:14 *1646:A 24.0979 
5 *767:14 *767:25 20.4271 
6 *767:25 *1687:A 38.8493 
7 *767:25 *767:42 22.3329 
8 *767:42 *1677:A 24.0979 
9 *767:42 *767:57 37.395 
10 *767:57 *1837:C_N 23 
11 *767:12 *2238:A 23 
12 *767:6 *767:75 36.4007 
13 *767:75 *1688:B 23 
*END

*D_NET *768 0.00674643
*CONN
*I *1648:A I *D sky130_fd_sc_hd__and3_2
*I *2205:A I *D sky130_fd_sc_hd__dlygate4sd3_1
*I *1688:A I *D sky130_fd_sc_hd__and3_2
*I *1675:C I *D sky130_fd_sc_hd__or4b_2
*I *1838:D_N I *D sky130_fd_sc_hd__or4bb_2
*I *2072:Q O *D sky130_fd_sc_hd__dfrtp_2
*CAP
1 *1648:A 0
2 *2205:A 0.000511259
3 *1688:A 0
4 *1675:C 0
5 *1838:D_N 0
6 *2072:Q 0
7 *768:61 0.000347424
8 *768:38 0.000549548
9 *768:20 0.000166655
10 *768:12 0.00143808
11 *768:4 0.00165714
12 *768:20 *770:56 0
13 *768:38 *769:63 0
14 *1679:B *768:12 0.000211937
15 *1680:B *768:20 0.000141954
16 *1687:B *768:61 7.88828e-05
17 *1688:C *2205:A 0.00039759
18 *1688:C *768:61 0.000123934
19 *1960:A *2205:A 0.000401599
20 *200:10 *768:38 0
21 *307:10 *768:38 6.6869e-05
22 *382:8 *768:20 0.000162477
23 *699:32 *768:38 4.8419e-05
24 *699:58 *768:38 8.26416e-05
25 *757:10 *768:20 1.39826e-05
26 *757:24 *768:20 3.71251e-05
27 *767:42 *768:61 0.000308914
*RES
1 *2072:Q *768:4 23 
2 *768:4 *768:12 18.1871 
3 *768:12 *768:20 34.1843 
4 *768:20 *1838:D_N 23 
5 *768:12 *1675:C 23 
6 *768:4 *768:38 37.8093 
7 *768:38 *1688:A 23 
8 *768:38 *2205:A 28.8829 
9 *2205:A *768:61 31.1407 
10 *768:61 *1648:A 23 
*END

*D_NET *769 0.00841828
*CONN
*I *2207:A I *D sky130_fd_sc_hd__dlygate4sd3_1
*I *1838:C_N I *D sky130_fd_sc_hd__or4bb_2
*I *1675:B I *D sky130_fd_sc_hd__or4b_2
*I *1647:A I *D sky130_fd_sc_hd__and3_2
*I *2073:Q O *D sky130_fd_sc_hd__dfrtp_2
*CAP
1 *2207:A 0
2 *1838:C_N 3.6708e-05
3 *1675:B 0.000219092
4 *1647:A 0
5 *2073:Q 0.000236498
6 *769:63 0.000293533
7 *769:35 0.000308078
8 *769:33 0.000219346
9 *769:18 0.000216496
10 *769:8 0.00187304
11 *769:6 0.00201951
12 *1675:B *770:56 0.000208036
13 *1675:B *771:16 2.79653e-05
14 *769:33 *770:56 0.000139647
15 *769:35 *770:56 0.00016597
16 mem_wdata[19] *769:63 2.5343e-05
17 *1677:D *769:18 5.3304e-05
18 *1680:B *1838:C_N 5.3304e-05
19 *2073:CLK *769:8 0.000487153
20 *198:10 *769:63 0.000139647
21 *307:10 *769:63 0
22 *356:10 *769:18 0.000108681
23 *358:10 *769:18 5.3304e-05
24 *380:10 *1675:B 0.000135699
25 *380:10 *769:35 0.000159823
26 *382:8 *769:33 0
27 *385:29 *769:18 0
28 *542:14 *769:8 0.000525417
29 *542:22 *769:8 0.000428639
30 *542:22 *769:18 0.000136738
31 *756:18 *769:18 1.83667e-05
32 *757:24 *769:33 0.000128948
33 *767:75 *769:63 0
34 *768:38 *769:63 0
*RES
1 *2073:Q *769:6 26.0036 
2 *769:6 *769:8 22.0607 
3 *769:8 *769:18 33.7493 
4 *769:18 *1647:A 23 
5 *769:8 *769:33 48.0036 
6 *769:33 *769:35 2.25786 
7 *769:35 *1675:B 42.7643 
8 *769:35 *1838:C_N 38.6214 
9 *769:6 *769:63 35.3443 
10 *769:63 *2207:A 23 
*END

*D_NET *770 0.00550024
*CONN
*I *1675:A I *D sky130_fd_sc_hd__or4b_2
*I *1837:D_N I *D sky130_fd_sc_hd__or4bb_2
*I *1661:A I *D sky130_fd_sc_hd__and3_2
*I *2232:A I *D sky130_fd_sc_hd__dlygate4sd3_1
*I *1657:B I *D sky130_fd_sc_hd__nand4_2
*I *2074:Q O *D sky130_fd_sc_hd__dfrtp_2
*CAP
1 *1675:A 0
2 *1837:D_N 0
3 *1661:A 0.000165854
4 *2232:A 0.000101083
5 *1657:B 0.000168182
6 *2074:Q 0
7 *770:56 0.000546917
8 *770:41 0.000792008
9 *770:19 0.000367494
10 *770:8 0.000467881
11 *770:4 0.000444233
12 *2232:A *773:14 0.000128106
13 *770:41 *1837:A 0.000308946
14 *770:56 *1837:A 0.000137651
15 *1675:B *770:56 0.000208036
16 *1677:B *770:56 8.85189e-05
17 *356:10 *770:56 0.000443824
18 *372:12 *1661:A 6.32688e-05
19 *372:12 *770:19 1.83667e-05
20 *372:14 *1657:B 1.37246e-05
21 *372:14 *770:19 2.70366e-05
22 *380:10 *770:56 1.88972e-05
23 *382:8 *770:56 0
24 *475:8 *770:56 0
25 *635:8 *1657:B 0.000280866
26 *635:8 *770:19 7.70737e-05
27 *696:61 *1661:A 0
28 *696:80 *1661:A 3.39192e-05
29 *757:24 *770:56 3.62219e-05
30 *763:18 *1661:A 0
31 *766:28 *770:56 7.79942e-05
32 *767:57 *770:41 5.3304e-05
33 *767:57 *770:56 0.000125213
34 *768:20 *770:56 0
35 *769:33 *770:56 0.000139647
36 *769:35 *770:56 0.00016597
*RES
1 *2074:Q *770:4 23 
2 *770:4 *770:8 17.5271 
3 *770:8 *1657:B 42.0186 
4 *770:8 *770:19 2.25786 
5 *770:19 *2232:A 40.5271 
6 *770:19 *1661:A 41.3143 
7 *770:4 *770:41 5.28214 
8 *770:41 *1837:D_N 23 
9 *770:41 *770:56 43.6093 
10 *770:56 *1675:A 23 
*END

*D_NET *771 0.00656344
*CONN
*I *1675:D_N I *D sky130_fd_sc_hd__or4b_2
*I *1837:A I *D sky130_fd_sc_hd__or4bb_2
*I *1657:A I *D sky130_fd_sc_hd__nand4_2
*I *1662:B I *D sky130_fd_sc_hd__and3_2
*I *1681:A1 I *D sky130_fd_sc_hd__o211a_2
*I *2075:Q O *D sky130_fd_sc_hd__dfrtp_2
*CAP
1 *1675:D_N 0
2 *1837:A 0.000430719
3 *1657:A 4.0087e-05
4 *1662:B 0
5 *1681:A1 0
6 *2075:Q 0.000575534
7 *771:44 0.000669976
8 *771:30 9.53524e-05
9 *771:20 0.000347236
10 *771:16 0.000803095
11 *771:8 0.000927575
12 *1675:B *771:16 2.79653e-05
13 *1681:A2 *771:30 0.000140958
14 *2075:RESET_B *771:8 9.83357e-05
15 *309:16 *771:30 0
16 *359:6 *1657:A 2.18409e-05
17 *359:12 *1657:A 5.69373e-05
18 *359:38 *1837:A 0.000222123
19 *368:18 *771:30 0.00012099
20 *368:39 *1657:A 7.73272e-05
21 *368:39 *771:44 9.39056e-05
22 *372:14 *771:44 0
23 *373:8 *771:30 1.37246e-05
24 *373:12 *771:30 1.46301e-06
25 *373:28 *771:30 1.7706e-05
26 *380:10 *771:16 0.000325457
27 *385:20 *771:8 0.000134949
28 *385:29 *1837:A 8.75792e-05
29 *385:29 *771:44 1.69668e-05
30 *542:22 *771:16 0.000112284
31 *674:44 *771:20 2.02872e-05
32 *674:58 *771:44 2.8183e-05
33 *696:112 *771:20 0.000229174
34 *757:39 *771:16 0.000306338
35 *757:39 *771:20 5.24911e-05
36 *767:57 *1837:A 2.02872e-05
37 *770:41 *1837:A 0.000308946
38 *770:56 *1837:A 0.000137651
*RES
1 *2075:Q *771:8 34.1236 
2 *771:8 *771:16 38.555 
3 *771:16 *771:20 4.45357 
4 *771:20 *771:30 32.667 
5 *771:30 *1681:A1 23 
6 *771:20 *1662:B 23 
7 *771:16 *771:44 18.3143 
8 *771:44 *1657:A 39.5743 
9 *771:44 *1837:A 47.5493 
10 *771:8 *1675:D_N 23 
*END

*D_NET *772 0.00283466
*CONN
*I *2121:D I *D sky130_fd_sc_hd__dfstp_2
*I *1836:X O *D sky130_fd_sc_hd__or4b_2
*CAP
1 *2121:D 0.000352414
2 *1836:X 0.000679776
3 *772:12 0.00103219
4 *1650:A *2121:D 3.33746e-05
5 *1925:A1 *2121:D 7.01168e-05
6 *1998:A *772:12 0.0002778
7 *2109:RESET_B *772:12 3.74873e-05
8 *360:39 *2121:D 0.000130119
9 *365:30 *772:12 1.85916e-05
10 *527:48 *2121:D 7.34394e-06
11 *549:55 *2121:D 0.000135037
12 *651:18 *2121:D 4.2812e-06
13 *687:47 *2121:D 0
14 *687:70 *2121:D 0
15 *749:21 *2121:D 5.61311e-05
*RES
1 *1836:X *772:12 49.4964 
2 *772:12 *2121:D 45.0014 
*END

*D_NET *773 0.00967243
*CONN
*I *2122:D I *D sky130_fd_sc_hd__dfstp_2
*I *1840:X O *D sky130_fd_sc_hd__or4_2
*CAP
1 *2122:D 0
2 *1840:X 0.000142178
3 *773:20 0.00150478
4 *773:18 0.00212657
5 *773:14 0.0019985
6 *773:8 0.00151889
7 *1645:A *773:14 0.000205936
8 *1683:A *773:14 8.19612e-05
9 *1928:A_N *773:20 0.000218071
10 *2067:CLK *773:18 0.000187668
11 *2232:A *773:14 0.000128106
12 *237:10 *773:20 2.84402e-05
13 *356:10 *773:14 5.50049e-05
14 *357:8 *773:8 8.85189e-05
15 *392:8 *773:18 0.000166413
16 *400:8 *773:18 0.000429808
17 *540:79 *773:18 0.000206484
18 *696:61 *773:18 8.28966e-05
19 *763:18 *773:14 5.60406e-05
20 *764:37 *773:8 0
21 *764:59 *773:8 8.94394e-05
22 *765:25 *773:14 0.000356724
23 *767:25 *773:8 0
*RES
1 *1840:X *773:8 40.9621 
2 *773:8 *773:14 49.2021 
3 *773:14 *773:18 31.3436 
4 *773:18 *773:20 29.2071 
5 *773:20 *2122:D 23 
*END

*D_NET *774 0.00190119
*CONN
*I *1621:B1 I *D sky130_fd_sc_hd__a31o_2
*I *2104:Q O *D sky130_fd_sc_hd__dfrtp_2
*CAP
1 *1621:B1 9.02872e-05
2 *2104:Q 0.000313589
3 *774:8 0.000403876
4 *774:8 *777:8 0
5 *1621:A2 *1621:B1 7.4416e-05
6 *1722:A1 *1621:B1 0
7 *230:10 *774:8 0
8 *331:42 *1621:B1 0.000226295
9 *539:24 *774:8 5.21127e-05
10 *711:10 *774:8 0
11 *727:40 *774:8 0
12 *727:59 *774:8 0.000246757
13 *734:52 *774:8 0.000299196
14 *734:63 *774:8 0.000139647
15 *734:71 *1621:B1 5.50106e-05
*RES
1 *2104:Q *774:8 45.8921 
2 *774:8 *1621:B1 41.0243 
*END

*D_NET *775 0.00211589
*CONN
*I *1778:A1 I *D sky130_fd_sc_hd__a22o_2
*I *1640:S I *D sky130_fd_sc_hd__mux2_1
*I *1634:B I *D sky130_fd_sc_hd__nand2b_2
*I *2015:Q O *D sky130_fd_sc_hd__dfstp_2
*CAP
1 *1778:A1 0.000114256
2 *1640:S 0
3 *1634:B 4.8336e-05
4 *2015:Q 0.000479175
5 *775:14 5.84258e-05
6 *775:10 0.000375009
7 *1640:A1 *1634:B 0.0002263
8 *1640:A1 *775:14 4.34745e-05
9 *1643:B1 *1634:B 0.0002263
10 *1643:B1 *775:14 5.50049e-05
11 *1779:B1_N *775:10 0
12 *346:47 *1778:A1 0.000159954
13 *346:47 *775:10 1.46594e-05
14 *347:10 *775:10 0
15 *351:25 *1778:A1 3.87455e-05
16 *351:25 *775:10 0.00027625
*RES
1 *2015:Q *775:10 43.3857 
2 *775:10 *775:14 15.6214 
3 *775:14 *1634:B 25.5271 
4 *775:14 *1640:S 23 
5 *2015:Q *1778:A1 48.5271 
*END

*D_NET *776 0.00523734
*CONN
*I *1778:B2 I *D sky130_fd_sc_hd__a22o_2
*I *1640:A0 I *D sky130_fd_sc_hd__mux2_1
*I *1644:A1 I *D sky130_fd_sc_hd__a31o_2
*I *1642:A1 I *D sky130_fd_sc_hd__a31oi_2
*I *1639:A I *D sky130_fd_sc_hd__nand2_2
*I *1779:A1 I *D sky130_fd_sc_hd__a21bo_2
*I *2016:Q O *D sky130_fd_sc_hd__dfrtp_2
*CAP
1 *1778:B2 0
2 *1640:A0 7.50195e-05
3 *1644:A1 0.000229198
4 *1642:A1 0
5 *1639:A 8.65643e-05
6 *1779:A1 0.00013089
7 *2016:Q 0.000353681
8 *776:67 0.000162522
9 *776:25 0.000117593
10 *776:23 0.000324111
11 *776:21 0.000345337
12 *776:8 0.000855802
13 *776:6 0.00103468
14 *1642:A2 *1644:A1 4.95081e-05
15 *1643:B1 *1640:A0 4.67488e-05
16 *1644:B1 *1644:A1 0.000223687
17 *1779:A2 *1639:A 3.70187e-05
18 *1779:A2 *776:21 0.000360725
19 *1779:A2 *776:23 0.000129504
20 *1779:A2 *776:25 5.01986e-05
21 *2016:CLK *1779:A1 3.16665e-05
22 *2016:CLK *776:8 6.70017e-05
23 *146:8 *776:67 0
24 *350:10 *1639:A 0.000221642
25 *694:53 *1639:A 6.437e-05
26 *701:74 *1639:A 6.33206e-05
27 *701:74 *776:21 0.00011446
28 *701:74 *776:23 4.3407e-05
29 *701:74 *776:25 1.86869e-05
*RES
1 *2016:Q *776:6 27.4329 
2 *776:6 *776:8 6.815 
3 *776:8 *1779:A1 24.9471 
4 *776:8 *776:21 20.075 
5 *776:21 *776:23 1.90571 
6 *776:23 *776:25 0.849286 
7 *776:25 *1639:A 41.3143 
8 *776:25 *1642:A1 38 
9 *776:23 *1644:A1 41.48 
10 *776:21 *1640:A0 39.0979 
11 *776:6 *776:67 32.5271 
12 *776:67 *1778:B2 23 
*END

*D_NET *777 0.000877561
*CONN
*I *1623:B1 I *D sky130_fd_sc_hd__a31o_2
*I *2103:Q O *D sky130_fd_sc_hd__dfrtp_2
*CAP
1 *1623:B1 2.85931e-05
2 *2103:Q 0.000158358
3 *777:8 0.000186951
4 *341:27 *777:8 0.000218962
5 *711:20 *777:8 8.92738e-05
6 *727:48 *777:8 0.000138718
7 *734:71 *1623:B1 5.67058e-05
8 *774:8 *777:8 0
*RES
1 *2103:Q *777:8 42.3707 
2 *777:8 *1623:B1 38.6214 
*END

*D_NET *778 0.00416643
*CONN
*I *1631:A I *D sky130_fd_sc_hd__and3_2
*I *1630:A1 I *D sky130_fd_sc_hd__a22o_2
*I *1777:A1 I *D sky130_fd_sc_hd__a21o_2
*I *1629:B I *D sky130_fd_sc_hd__nand2_2
*I *2013:Q O *D sky130_fd_sc_hd__dfstp_2
*CAP
1 *1631:A 0.000438373
2 *1630:A1 2.89513e-05
3 *1777:A1 2.98877e-05
4 *1629:B 0.000155961
5 *2013:Q 0.000541479
6 *778:36 0.000570943
7 *778:25 0.00015634
8 *778:10 0.000720273
9 *1631:B *1631:A 0
10 *1777:A2 *1777:A1 3.85196e-05
11 *1777:A2 *778:36 0.000233359
12 *1777:B1 *1777:A1 5.47983e-06
13 *2031:CLK *1629:B 5.79559e-05
14 *147:10 *778:10 1.85903e-05
15 *147:10 *778:25 5.56356e-05
16 *147:10 *778:36 0.000102389
17 *337:42 *1631:A 5.3304e-05
18 *338:10 *1630:A1 6.16439e-05
19 *338:10 *1631:A 0.000432791
20 *341:27 *778:25 1.1669e-05
21 *341:27 *778:36 6.82228e-06
22 *343:16 *1630:A1 4.2812e-06
23 *345:12 *1629:B 0.00024851
24 *345:12 *778:10 9.80563e-05
25 *685:6 *1631:A 6.17437e-06
26 *685:10 *1631:A 2.64616e-05
27 *685:26 *1631:A 6.25829e-05
*RES
1 *2013:Q *778:10 45.4157 
2 *778:10 *1629:B 41.9357 
3 *778:10 *778:25 15.6214 
4 *778:25 *1777:A1 23.8493 
5 *778:25 *778:36 18.0036 
6 *778:36 *1630:A1 38.8493 
7 *778:36 *1631:A 47.2179 
*END

*D_NET *779 0.00183509
*CONN
*I *1628:B I *D sky130_fd_sc_hd__nand3_2
*I *1627:B I *D sky130_fd_sc_hd__and3_2
*I *1617:A I *D sky130_fd_sc_hd__inv_2
*I *2014:Q O *D sky130_fd_sc_hd__dfrtp_2
*CAP
1 *1628:B 8.2741e-05
2 *1627:B 0.000142924
3 *1617:A 2.54799e-05
4 *2014:Q 0.000143841
5 *779:14 0.000255681
6 *779:10 0.000313858
7 *1628:A *1628:B 9.79608e-05
8 *1628:A *779:10 4.2812e-06
9 *1632:B1 *1617:A 1.12349e-05
10 *1632:B1 *1627:B 3.42345e-05
11 *1632:B1 *779:14 4.65315e-05
12 *2031:CLK *1628:B 0.000185104
13 *333:6 *779:14 9.64943e-05
14 *333:18 *779:10 7.14515e-05
15 *333:39 *1627:B 1.3523e-05
16 *333:39 *779:14 2.46906e-05
17 *342:8 *1628:B 1.37349e-05
18 *551:33 *1628:B 1.01436e-05
19 *551:33 *779:10 0.000161121
20 *555:29 *1627:B 0.000100061
*RES
1 *2014:Q *779:10 40.8793 
2 *779:10 *779:14 17.0507 
3 *779:14 *1617:A 23.4971 
4 *779:14 *1627:B 26.045 
5 *779:10 *1628:B 40.9621 
*END
