*SPEF "ieee 1481-1999"
*DESIGN "soc_top"
*DATE "10:35:06 Friday September 11, 2026"
*VENDOR "The OpenROAD Project"
*PROGRAM "OpenROAD"
*VERSION "dcf36133a369abc8f3c5e5738cd4d82e4903c0e0"
*DESIGN_FLOW "NAME_SCOPE LOCAL" "PIN_CAP NONE"
*DIVIDER /
*DELIMITER :
*BUS_DELIMITER []
*T_UNIT 1 NS
*C_UNIT 1 PF
*R_UNIT 1 OHM
*L_UNIT 1 HENRY

*NAME_MAP
*1 Hsync
*4 Vsync
*5 net
*6 net64
*7 net65
*8 net66
*9 net67
*10 net68
*11 net69
*12 net70
*13 clk
*14 cpu_stall
*15 net71
*16 net72
*17 net73
*18 net74
*19 net75
*20 net76
*21 net77
*22 net78
*23 net79
*24 net80
*25 net90
*26 net91
*27 net92
*28 net93
*29 net94
*30 net95
*31 net96
*32 net97
*33 net98
*34 net99
*35 net81
*36 net100
*37 net101
*38 net102
*39 net103
*40 net104
*41 net105
*42 net106
*43 net107
*44 net108
*45 net109
*46 net82
*47 net110
*48 net111
*49 net83
*50 net84
*51 net85
*52 net86
*53 net87
*54 net88
*55 net89
*56 net112
*57 net113
*58 net123
*59 net124
*60 net125
*61 net126
*62 net127
*63 net128
*64 net129
*65 net130
*66 net131
*67 net132
*68 net114
*69 net133
*70 net134
*71 net135
*72 net136
*73 net137
*74 net138
*75 net139
*76 net140
*77 net141
*78 net142
*79 net115
*80 net143
*81 net144
*82 net116
*83 net117
*84 net118
*85 net119
*86 net120
*87 net121
*88 net122
*89 net145
*90 net146
*91 pcRegister[10]
*92 pcRegister[11]
*93 pcRegister[12]
*94 pcRegister[13]
*95 pcRegister[14]
*96 pcRegister[15]
*97 pcRegister[16]
*98 pcRegister[17]
*99 pcRegister[18]
*100 pcRegister[19]
*101 net147
*102 pcRegister[20]
*103 pcRegister[21]
*104 pcRegister[22]
*105 pcRegister[23]
*106 pcRegister[24]
*107 pcRegister[25]
*108 pcRegister[26]
*109 pcRegister[27]
*110 pcRegister[28]
*111 pcRegister[29]
*112 pcRegister[2]
*113 pcRegister[30]
*114 pcRegister[31]
*115 pcRegister[3]
*116 pcRegister[4]
*117 pcRegister[5]
*118 pcRegister[6]
*119 pcRegister[7]
*120 pcRegister[8]
*121 pcRegister[9]
*122 net148
*123 net149
*124 net150
*125 net151
*126 net152
*127 net153
*128 net154
*129 net155
*130 reset
*131 _0000_
*132 _0001_
*133 _0002_
*134 _0003_
*135 _0004_
*136 _0005_
*137 _0006_
*138 _0007_
*139 _0008_
*140 _0009_
*141 _0010_
*142 _0011_
*143 _0012_
*144 _0013_
*145 _0014_
*146 _0015_
*147 _0016_
*148 _0017_
*149 _0018_
*150 _0019_
*151 _0020_
*152 _0021_
*153 _0022_
*154 _0023_
*155 _0024_
*156 _0025_
*157 _0026_
*158 _0027_
*159 _0028_
*160 _0029_
*161 _0030_
*162 _0031_
*163 _0032_
*164 _0033_
*165 _0034_
*166 _0035_
*167 _0036_
*168 _0037_
*169 _0038_
*170 _0039_
*171 _0040_
*172 _0041_
*173 _0042_
*174 _0043_
*175 _0044_
*176 _0045_
*177 _0046_
*178 _0047_
*179 _0048_
*180 _0049_
*181 _0050_
*182 _0051_
*183 _0052_
*184 _0053_
*185 _0054_
*186 _0055_
*187 _0056_
*188 _0057_
*189 _0058_
*190 _0059_
*191 _0060_
*192 _0061_
*193 _0062_
*194 _0063_
*195 _0064_
*196 _0065_
*197 _0066_
*198 _0067_
*199 _0068_
*200 _0069_
*201 _0070_
*202 _0071_
*203 _0072_
*204 _0073_
*205 _0074_
*206 _0075_
*207 _0076_
*208 _0077_
*209 _0078_
*210 _0079_
*211 _0080_
*212 _0081_
*213 _0082_
*214 _0083_
*215 _0084_
*216 _0085_
*217 _0086_
*218 _0087_
*219 _0088_
*220 _0089_
*221 _0090_
*222 _0091_
*223 _0092_
*224 _0093_
*225 _0094_
*226 _0095_
*227 _0096_
*228 _0097_
*229 _0098_
*230 _0099_
*231 _0100_
*232 _0101_
*233 _0102_
*234 _0103_
*235 _0104_
*236 _0105_
*237 _0106_
*238 _0107_
*239 _0108_
*240 _0109_
*241 _0110_
*242 _0111_
*243 _0112_
*244 _0113_
*245 _0114_
*246 _0115_
*247 _0116_
*248 _0117_
*249 _0118_
*250 _0119_
*251 _0120_
*252 _0121_
*253 _0122_
*254 _0123_
*255 _0124_
*256 _0125_
*257 _0126_
*258 _0127_
*259 _0128_
*260 _0129_
*261 _0130_
*262 _0131_
*263 _0132_
*264 _0133_
*265 _0134_
*266 _0135_
*267 _0136_
*268 _0137_
*269 _0138_
*270 _0139_
*271 _0140_
*272 _0141_
*273 _0142_
*274 _0143_
*275 _0144_
*276 _0145_
*277 _0146_
*278 _0147_
*279 _0148_
*280 _0149_
*281 _0150_
*282 _0151_
*283 _0152_
*284 _0153_
*285 _0154_
*286 _0155_
*287 _0156_
*288 _0157_
*289 _0158_
*290 _0159_
*291 _0160_
*292 _0161_
*293 _0162_
*294 _0163_
*295 _0164_
*296 _0165_
*297 _0166_
*298 _0167_
*299 _0168_
*300 _0169_
*301 _0170_
*302 _0171_
*303 _0172_
*304 _0173_
*305 _0174_
*306 _0175_
*307 _0176_
*308 _0177_
*309 _0178_
*310 _0179_
*311 _0180_
*312 _0181_
*313 _0182_
*314 _0183_
*315 _0184_
*316 _0185_
*317 _0186_
*318 _0187_
*319 _0188_
*320 _0189_
*321 _0190_
*322 _0191_
*323 _0192_
*324 _0193_
*325 _0194_
*326 _0195_
*327 _0196_
*328 _0197_
*329 _0198_
*330 _0199_
*331 _0200_
*332 _0201_
*333 _0202_
*334 _0203_
*335 _0204_
*336 _0205_
*337 _0206_
*338 _0207_
*339 _0208_
*340 _0209_
*341 _0210_
*342 _0211_
*343 _0212_
*344 _0213_
*345 _0214_
*346 _0215_
*347 _0216_
*348 _0217_
*349 _0218_
*350 _0219_
*351 _0220_
*352 _0221_
*353 _0222_
*354 _0223_
*355 _0224_
*356 _0225_
*357 _0226_
*358 _0227_
*359 _0228_
*360 _0229_
*361 _0230_
*362 _0231_
*363 _0232_
*364 _0233_
*365 _0234_
*366 _0235_
*367 _0236_
*368 _0237_
*369 _0238_
*370 _0239_
*371 _0240_
*372 _0241_
*373 _0242_
*374 _0243_
*375 _0244_
*376 _0245_
*377 _0246_
*378 _0247_
*379 _0248_
*380 _0249_
*381 _0250_
*382 _0251_
*383 _0252_
*384 _0253_
*385 _0254_
*386 _0255_
*387 _0256_
*388 _0257_
*389 _0258_
*390 _0259_
*391 _0260_
*392 _0261_
*393 _0262_
*394 _0263_
*395 _0264_
*396 _0265_
*397 _0266_
*398 _0267_
*399 _0268_
*400 _0269_
*401 _0270_
*402 _0271_
*403 _0272_
*404 _0273_
*405 _0274_
*406 _0275_
*407 _0276_
*408 _0277_
*409 _0278_
*410 _0279_
*411 _0280_
*412 _0281_
*413 _0282_
*414 _0283_
*415 _0284_
*416 _0285_
*417 _0286_
*418 _0287_
*419 _0288_
*420 _0289_
*421 _0290_
*422 _0291_
*423 _0292_
*424 _0293_
*425 _0294_
*426 _0295_
*427 _0296_
*428 _0297_
*429 _0298_
*430 _0299_
*431 _0300_
*432 _0301_
*433 _0302_
*434 _0303_
*435 _0304_
*436 _0305_
*437 _0306_
*438 _0307_
*439 _0308_
*440 _0309_
*441 _0310_
*442 _0311_
*443 _0312_
*444 _0313_
*445 _0314_
*446 _0315_
*447 _0316_
*448 _0317_
*449 _0318_
*450 _0319_
*451 _0320_
*452 _0321_
*453 _0322_
*454 _0323_
*455 _0324_
*456 _0325_
*457 _0326_
*458 _0327_
*459 _0328_
*460 _0329_
*461 _0330_
*462 _0331_
*463 _0332_
*464 _0333_
*465 _0334_
*466 _0335_
*467 _0336_
*468 _0337_
*469 _0338_
*470 _0339_
*471 _0340_
*472 _0341_
*473 _0342_
*474 _0343_
*475 _0344_
*476 _0345_
*477 _0346_
*478 _0347_
*479 _0348_
*480 _0349_
*481 _0350_
*482 _0351_
*483 _0352_
*484 _0353_
*485 _0354_
*486 _0355_
*487 _0356_
*488 _0357_
*489 _0358_
*490 _0359_
*491 _0360_
*492 _0361_
*493 _0362_
*494 _0363_
*495 _0364_
*496 _0365_
*497 _0366_
*498 _0367_
*499 _0368_
*500 _0369_
*501 _0370_
*502 _0371_
*503 _0372_
*504 _0373_
*505 _0374_
*506 _0375_
*507 _0376_
*508 _0377_
*509 _0378_
*510 _0379_
*511 _0380_
*512 _0381_
*513 _0382_
*514 _0383_
*515 _0384_
*516 _0385_
*517 _0386_
*518 _0387_
*519 _0388_
*520 _0389_
*521 _0390_
*522 _0391_
*523 _0392_
*524 _0393_
*525 _0394_
*526 _0395_
*527 _0396_
*528 _0397_
*529 _0398_
*530 _0399_
*531 _0400_
*532 _0401_
*533 _0402_
*534 _0403_
*535 clknet_0_clk
*536 clknet_4_0_0_clk
*537 clknet_4_10_0_clk
*538 clknet_4_11_0_clk
*539 clknet_4_12_0_clk
*540 clknet_4_13_0_clk
*541 clknet_4_14_0_clk
*542 clknet_4_15_0_clk
*543 clknet_4_1_0_clk
*544 clknet_4_2_0_clk
*545 clknet_4_3_0_clk
*546 clknet_4_4_0_clk
*547 clknet_4_5_0_clk
*548 clknet_4_6_0_clk
*549 clknet_4_7_0_clk
*550 clknet_4_8_0_clk
*551 clknet_4_9_0_clk
*552 m_axi_arready
*553 m_axi_arvalid
*554 m_axi_awvalid
*555 m_axi_bready
*556 m_axi_rready
*557 m_axi_wvalid
*558 net1
*559 net10
*560 net11
*561 net12
*562 net13
*563 net14
*564 net15
*565 net156
*566 net157
*567 net158
*568 net159
*569 net16
*570 net160
*571 net161
*572 net162
*573 net163
*574 net164
*575 net165
*576 net166
*577 net167
*578 net168
*579 net169
*580 net17
*581 net170
*582 net171
*583 net172
*584 net173
*585 net174
*586 net175
*587 net176
*588 net177
*589 net178
*590 net179
*591 net18
*592 net180
*593 net181
*594 net182
*595 net183
*596 net184
*597 net185
*598 net186
*599 net187
*600 net188
*601 net189
*602 net19
*603 net190
*604 net191
*605 net192
*606 net193
*607 net194
*608 net195
*609 net196
*610 net197
*611 net198
*612 net199
*613 net2
*614 net20
*615 net200
*616 net201
*617 net202
*618 net203
*619 net204
*620 net205
*621 net206
*622 net207
*623 net208
*624 net209
*625 net21
*626 net210
*627 net211
*628 net212
*629 net213
*630 net214
*631 net215
*632 net216
*633 net217
*634 net218
*635 net219
*636 net22
*637 net220
*638 net221
*639 net222
*640 net223
*641 net224
*642 net225
*643 net226
*644 net227
*645 net228
*646 net229
*647 net23
*648 net230
*649 net231
*650 net232
*651 net233
*652 net234
*653 net235
*654 net236
*655 net237
*656 net238
*657 net239
*658 net24
*659 net25
*660 net26
*661 net27
*662 net28
*663 net29
*664 net3
*665 net30
*666 net31
*667 net32
*668 net33
*669 net34
*670 net35
*671 net36
*672 net37
*673 net38
*674 net39
*675 net4
*676 net40
*677 net41
*678 net42
*679 net43
*680 net44
*681 net45
*682 net46
*683 net47
*684 net48
*685 net49
*686 net5
*687 net50
*688 net51
*689 net52
*690 net53
*691 net54
*692 net55
*693 net56
*694 net57
*695 net58
*696 net59
*697 net6
*698 net60
*699 net61
*700 net62
*701 net63
*702 net7
*703 net8
*704 net9
*705 s0_axi_bvalid
*706 s0_axi_rvalid
*707 s1_axi_arready
*708 s1_axi_awready
*709 s1_axi_bvalid
*710 s1_axi_rvalid
*711 s1_axi_wready
*712 u_axi_bridge\.state\[0\]
*713 u_axi_bridge\.state\[1\]
*714 u_axi_bridge\.state\[2\]
*715 u_axi_decoder\.aw_latched
*716 u_axi_decoder\.rd_state\[1\]
*717 u_axi_decoder\.rd_state\[2\]
*718 u_axi_decoder\.rd_state\[3\]
*719 u_axi_decoder\.rd_state\[4\]
*720 u_axi_decoder\.rd_target_owner\[1\]
*721 u_axi_decoder\.rd_target_owner\[2\]
*722 u_axi_decoder\.s0_arvalid_reg
*723 u_axi_decoder\.s0_awvalid_reg
*724 u_axi_decoder\.s0_wvalid_reg
*725 u_axi_decoder\.s1_arvalid_reg
*726 u_axi_decoder\.s1_awvalid_reg
*727 u_axi_decoder\.s1_wvalid_reg
*728 u_axi_decoder\.unmapped_bvalid_reg
*729 u_axi_decoder\.unmapped_rvalid_reg
*730 u_axi_decoder\.w_latched
*731 u_axi_decoder\.wr_state\[0\]
*732 u_axi_decoder\.wr_state\[1\]
*733 u_axi_decoder\.wr_state\[2\]
*734 u_axi_decoder\.wr_state\[3\]
*735 u_axi_decoder\.wr_state\[4\]
*736 u_axi_decoder\.wr_target_owner\[1\]
*737 u_axi_decoder\.wr_target_owner\[2\]
*738 u_data_memory\.aw_latched
*739 u_data_memory\.w_latched
*740 u_vga_controller\.H_count\[0\]
*741 u_vga_controller\.H_count\[10\]
*742 u_vga_controller\.H_count\[11\]
*743 u_vga_controller\.H_count\[12\]
*744 u_vga_controller\.H_count\[13\]
*745 u_vga_controller\.H_count\[14\]
*746 u_vga_controller\.H_count\[15\]
*747 u_vga_controller\.H_count\[1\]
*748 u_vga_controller\.H_count\[2\]
*749 u_vga_controller\.H_count\[3\]
*750 u_vga_controller\.H_count\[4\]
*751 u_vga_controller\.H_count\[5\]
*752 u_vga_controller\.H_count\[6\]
*753 u_vga_controller\.H_count\[7\]
*754 u_vga_controller\.H_count\[8\]
*755 u_vga_controller\.H_count\[9\]
*756 u_vga_controller\.V_count\[0\]
*757 u_vga_controller\.V_count\[10\]
*758 u_vga_controller\.V_count\[11\]
*759 u_vga_controller\.V_count\[12\]
*760 u_vga_controller\.V_count\[13\]
*761 u_vga_controller\.V_count\[14\]
*762 u_vga_controller\.V_count\[15\]
*763 u_vga_controller\.V_count\[1\]
*764 u_vga_controller\.V_count\[2\]
*765 u_vga_controller\.V_count\[3\]
*766 u_vga_controller\.V_count\[4\]
*767 u_vga_controller\.V_count\[5\]
*768 u_vga_controller\.V_count\[6\]
*769 u_vga_controller\.V_count\[7\]
*770 u_vga_controller\.V_count\[8\]
*771 u_vga_controller\.V_count\[9\]
*772 u_vga_controller\.raw_hsync
*773 u_vga_controller\.raw_vsync
*774 u_vga_registers\.aw_latched
*775 u_vga_registers\.rd_state\[0\]
*776 u_vga_registers\.rd_state\[3\]
*777 u_vga_registers\.w_latched
*778 u_vga_registers\.wr_state\[0\]
*779 u_vga_registers\.wr_state\[1\]
*780 FILLER_0_105
*781 FILLER_0_108
*782 FILLER_0_111
*783 FILLER_0_113
*784 FILLER_0_137
*785 FILLER_0_149
*786 FILLER_0_152
*787 FILLER_0_155
*788 FILLER_0_158
*789 FILLER_0_16
*790 FILLER_0_161
*791 FILLER_0_164
*792 FILLER_0_167
*793 FILLER_0_169
*794 FILLER_0_174
*795 FILLER_0_177
*796 FILLER_0_180
*797 FILLER_0_191
*798 FILLER_0_194
*799 FILLER_0_197
*800 FILLER_0_200
*801 FILLER_0_203
*802 FILLER_0_206
*803 FILLER_0_209
*804 FILLER_0_212
*805 FILLER_0_215
*806 FILLER_0_25
*807 FILLER_0_29
*808 FILLER_0_3
*809 FILLER_0_44
*810 FILLER_0_47
*811 FILLER_0_6
*812 FILLER_0_83
*813 FILLER_0_93
*814 FILLER_0_97
*815 FILLER_10_107
*816 FILLER_10_110
*817 FILLER_10_113
*818 FILLER_10_148
*819 FILLER_10_164
*820 FILLER_10_184
*821 FILLER_10_193
*822 FILLER_10_206
*823 FILLER_10_210
*824 FILLER_10_3
*825 FILLER_10_56
*826 FILLER_10_6
*827 FILLER_10_85
*828 FILLER_11_113
*829 FILLER_11_116
*830 FILLER_11_138
*831 FILLER_11_149
*832 FILLER_11_152
*833 FILLER_11_155
*834 FILLER_11_158
*835 FILLER_11_193
*836 FILLER_11_196
*837 FILLER_11_199
*838 FILLER_11_202
*839 FILLER_11_205
*840 FILLER_11_208
*841 FILLER_11_55
*842 FILLER_12_102
*843 FILLER_12_147
*844 FILLER_12_152
*845 FILLER_12_16
*846 FILLER_12_194
*847 FILLER_12_197
*848 FILLER_12_200
*849 FILLER_12_203
*850 FILLER_12_206
*851 FILLER_12_211
*852 FILLER_12_27
*853 FILLER_12_29
*854 FILLER_12_3
*855 FILLER_12_6
*856 FILLER_12_83
*857 FILLER_12_88
*858 FILLER_13_101
*859 FILLER_13_104
*860 FILLER_13_109
*861 FILLER_13_11
*862 FILLER_13_116
*863 FILLER_13_126
*864 FILLER_13_138
*865 FILLER_13_14
*866 FILLER_13_167
*867 FILLER_13_186
*868 FILLER_13_193
*869 FILLER_13_217
*870 FILLER_13_24
*871 FILLER_13_27
*872 FILLER_13_84
*873 FILLER_13_87
*874 FILLER_13_90
*875 FILLER_13_93
*876 FILLER_14_101
*877 FILLER_14_133
*878 FILLER_14_138
*879 FILLER_14_144
*880 FILLER_14_147
*881 FILLER_14_150
*882 FILLER_14_153
*883 FILLER_14_156
*884 FILLER_14_159
*885 FILLER_14_167
*886 FILLER_14_172
*887 FILLER_14_185
*888 FILLER_14_188
*889 FILLER_14_197
*890 FILLER_14_25
*891 FILLER_14_3
*892 FILLER_14_57
*893 FILLER_14_6
*894 FILLER_14_92
*895 FILLER_14_95
*896 FILLER_14_98
*897 FILLER_15_111
*898 FILLER_15_147
*899 FILLER_15_150
*900 FILLER_15_153
*901 FILLER_15_158
*902 FILLER_15_175
*903 FILLER_15_178
*904 FILLER_15_181
*905 FILLER_15_34
*906 FILLER_15_60
*907 FILLER_15_63
*908 FILLER_15_66
*909 FILLER_16_109
*910 FILLER_16_141
*911 FILLER_16_144
*912 FILLER_16_167
*913 FILLER_16_179
*914 FILLER_16_204
*915 FILLER_16_207
*916 FILLER_16_27
*917 FILLER_16_37
*918 FILLER_16_40
*919 FILLER_16_61
*920 FILLER_16_64
*921 FILLER_16_67
*922 FILLER_16_70
*923 FILLER_16_96
*924 FILLER_17_113
*925 FILLER_17_129
*926 FILLER_17_169
*927 FILLER_17_207
*928 FILLER_17_25
*929 FILLER_17_74
*930 FILLER_17_77
*931 FILLER_17_80
*932 FILLER_17_95
*933 FILLER_17_98
*934 FILLER_18_102
*935 FILLER_18_138
*936 FILLER_18_146
*937 FILLER_18_149
*938 FILLER_18_152
*939 FILLER_18_155
*940 FILLER_18_193
*941 FILLER_18_3
*942 FILLER_18_36
*943 FILLER_18_46
*944 FILLER_18_67
*945 FILLER_18_70
*946 FILLER_18_73
*947 FILLER_18_76
*948 FILLER_18_99
*949 FILLER_19_113
*950 FILLER_19_126
*951 FILLER_19_129
*952 FILLER_19_151
*953 FILLER_19_154
*954 FILLER_19_157
*955 FILLER_19_166
*956 FILLER_19_172
*957 FILLER_19_175
*958 FILLER_19_181
*959 FILLER_19_184
*960 FILLER_19_19
*961 FILLER_19_203
*962 FILLER_19_28
*963 FILLER_19_39
*964 FILLER_19_42
*965 FILLER_19_45
*966 FILLER_19_65
*967 FILLER_19_89
*968 FILLER_1_111
*969 FILLER_1_116
*970 FILLER_1_124
*971 FILLER_1_127
*972 FILLER_1_151
*973 FILLER_1_154
*974 FILLER_1_157
*975 FILLER_1_160
*976 FILLER_1_163
*977 FILLER_1_166
*978 FILLER_1_169
*979 FILLER_1_192
*980 FILLER_1_195
*981 FILLER_1_198
*982 FILLER_1_201
*983 FILLER_1_204
*984 FILLER_1_207
*985 FILLER_1_210
*986 FILLER_1_25
*987 FILLER_1_44
*988 FILLER_20_11
*989 FILLER_20_138
*990 FILLER_20_14
*991 FILLER_20_144
*992 FILLER_20_147
*993 FILLER_20_197
*994 FILLER_20_200
*995 FILLER_20_203
*996 FILLER_20_206
*997 FILLER_20_25
*998 FILLER_20_69
*999 FILLER_20_72
*1000 FILLER_20_75
*1001 FILLER_20_80
*1002 FILLER_20_83
*1003 FILLER_21_103
*1004 FILLER_21_116
*1005 FILLER_21_119
*1006 FILLER_21_122
*1007 FILLER_21_125
*1008 FILLER_21_131
*1009 FILLER_21_134
*1010 FILLER_21_137
*1011 FILLER_21_140
*1012 FILLER_21_16
*1013 FILLER_21_166
*1014 FILLER_21_195
*1015 FILLER_21_198
*1016 FILLER_21_201
*1017 FILLER_21_216
*1018 FILLER_21_3
*1019 FILLER_21_6
*1020 FILLER_21_70
*1021 FILLER_21_74
*1022 FILLER_21_79
*1023 FILLER_21_82
*1024 FILLER_22_109
*1025 FILLER_22_123
*1026 FILLER_22_137
*1027 FILLER_22_24
*1028 FILLER_22_27
*1029 FILLER_22_3
*1030 FILLER_22_53
*1031 FILLER_22_6
*1032 FILLER_23_109
*1033 FILLER_23_137
*1034 FILLER_23_152
*1035 FILLER_23_167
*1036 FILLER_23_204
*1037 FILLER_23_207
*1038 FILLER_23_210
*1039 FILLER_23_25
*1040 FILLER_23_28
*1041 FILLER_23_83
*1042 FILLER_24_108
*1043 FILLER_24_139
*1044 FILLER_24_141
*1045 FILLER_24_195
*1046 FILLER_24_200
*1047 FILLER_24_203
*1048 FILLER_24_206
*1049 FILLER_24_209
*1050 FILLER_24_27
*1051 FILLER_24_3
*1052 FILLER_24_36
*1053 FILLER_24_39
*1054 FILLER_24_49
*1055 FILLER_24_82
*1056 FILLER_24_85
*1057 FILLER_25_11
*1058 FILLER_25_113
*1059 FILLER_25_135
*1060 FILLER_25_158
*1061 FILLER_25_169
*1062 FILLER_25_180
*1063 FILLER_25_203
*1064 FILLER_25_206
*1065 FILLER_25_209
*1066 FILLER_25_49
*1067 FILLER_25_85
*1068 FILLER_26_110
*1069 FILLER_26_172
*1070 FILLER_26_19
*1071 FILLER_26_190
*1072 FILLER_26_195
*1073 FILLER_26_197
*1074 FILLER_26_200
*1075 FILLER_26_203
*1076 FILLER_26_206
*1077 FILLER_26_42
*1078 FILLER_26_65
*1079 FILLER_26_85
*1080 FILLER_26_97
*1081 FILLER_27_11
*1082 FILLER_27_113
*1083 FILLER_27_126
*1084 FILLER_27_139
*1085 FILLER_27_142
*1086 FILLER_27_149
*1087 FILLER_27_152
*1088 FILLER_27_155
*1089 FILLER_27_158
*1090 FILLER_27_169
*1091 FILLER_27_172
*1092 FILLER_27_179
*1093 FILLER_27_194
*1094 FILLER_27_30
*1095 FILLER_27_43
*1096 FILLER_27_57
*1097 FILLER_27_90
*1098 FILLER_28_125
*1099 FILLER_28_128
*1100 FILLER_28_131
*1101 FILLER_28_151
*1102 FILLER_28_154
*1103 FILLER_28_176
*1104 FILLER_28_192
*1105 FILLER_28_195
*1106 FILLER_28_203
*1107 FILLER_28_208
*1108 FILLER_28_3
*1109 FILLER_28_49
*1110 FILLER_28_85
*1111 FILLER_28_88
*1112 FILLER_28_96
*1113 FILLER_28_99
*1114 FILLER_29_106
*1115 FILLER_29_109
*1116 FILLER_29_11
*1117 FILLER_29_14
*1118 FILLER_29_153
*1119 FILLER_29_156
*1120 FILLER_29_176
*1121 FILLER_29_204
*1122 FILLER_29_216
*1123 FILLER_29_23
*1124 FILLER_29_34
*1125 FILLER_29_52
*1126 FILLER_29_57
*1127 FILLER_29_84
*1128 FILLER_29_87
*1129 FILLER_2_124
*1130 FILLER_2_127
*1131 FILLER_2_138
*1132 FILLER_2_144
*1133 FILLER_2_157
*1134 FILLER_2_160
*1135 FILLER_2_163
*1136 FILLER_2_166
*1137 FILLER_2_169
*1138 FILLER_2_172
*1139 FILLER_2_175
*1140 FILLER_2_192
*1141 FILLER_2_195
*1142 FILLER_2_205
*1143 FILLER_2_24
*1144 FILLER_2_27
*1145 FILLER_2_40
*1146 FILLER_2_83
*1147 FILLER_2_85
*1148 FILLER_30_100
*1149 FILLER_30_103
*1150 FILLER_30_112
*1151 FILLER_30_134
*1152 FILLER_30_141
*1153 FILLER_30_144
*1154 FILLER_30_153
*1155 FILLER_30_156
*1156 FILLER_30_180
*1157 FILLER_30_29
*1158 FILLER_30_3
*1159 FILLER_30_65
*1160 FILLER_30_81
*1161 FILLER_31_102
*1162 FILLER_31_131
*1163 FILLER_31_134
*1164 FILLER_31_137
*1165 FILLER_31_153
*1166 FILLER_31_156
*1167 FILLER_31_159
*1168 FILLER_31_162
*1169 FILLER_31_165
*1170 FILLER_31_169
*1171 FILLER_31_172
*1172 FILLER_31_207
*1173 FILLER_31_24
*1174 FILLER_31_3
*1175 FILLER_31_67
*1176 FILLER_31_81
*1177 FILLER_31_99
*1178 FILLER_32_128
*1179 FILLER_32_131
*1180 FILLER_32_148
*1181 FILLER_32_151
*1182 FILLER_32_154
*1183 FILLER_32_157
*1184 FILLER_32_160
*1185 FILLER_32_173
*1186 FILLER_32_176
*1187 FILLER_32_179
*1188 FILLER_32_182
*1189 FILLER_32_185
*1190 FILLER_32_192
*1191 FILLER_32_197
*1192 FILLER_32_206
*1193 FILLER_32_27
*1194 FILLER_32_41
*1195 FILLER_32_88
*1196 FILLER_32_97
*1197 FILLER_33_124
*1198 FILLER_33_127
*1199 FILLER_33_155
*1200 FILLER_33_158
*1201 FILLER_33_167
*1202 FILLER_33_196
*1203 FILLER_33_199
*1204 FILLER_33_202
*1205 FILLER_33_205
*1206 FILLER_33_208
*1207 FILLER_33_211
*1208 FILLER_33_54
*1209 FILLER_33_57
*1210 FILLER_34_130
*1211 FILLER_34_133
*1212 FILLER_34_149
*1213 FILLER_34_183
*1214 FILLER_34_186
*1215 FILLER_34_190
*1216 FILLER_34_193
*1217 FILLER_34_197
*1218 FILLER_34_200
*1219 FILLER_34_203
*1220 FILLER_34_206
*1221 FILLER_34_209
*1222 FILLER_34_24
*1223 FILLER_34_3
*1224 FILLER_34_52
*1225 FILLER_34_82
*1226 FILLER_34_85
*1227 FILLER_34_94
*1228 FILLER_35_101
*1229 FILLER_35_109
*1230 FILLER_35_113
*1231 FILLER_35_116
*1232 FILLER_35_121
*1233 FILLER_35_124
*1234 FILLER_35_127
*1235 FILLER_35_130
*1236 FILLER_35_133
*1237 FILLER_35_156
*1238 FILLER_35_162
*1239 FILLER_35_177
*1240 FILLER_35_180
*1241 FILLER_35_183
*1242 FILLER_35_186
*1243 FILLER_35_189
*1244 FILLER_35_192
*1245 FILLER_35_195
*1246 FILLER_35_198
*1247 FILLER_35_201
*1248 FILLER_35_204
*1249 FILLER_35_207
*1250 FILLER_35_210
*1251 FILLER_35_34
*1252 FILLER_35_42
*1253 FILLER_36_105
*1254 FILLER_36_110
*1255 FILLER_36_113
*1256 FILLER_36_118
*1257 FILLER_36_121
*1258 FILLER_36_126
*1259 FILLER_36_129
*1260 FILLER_36_134
*1261 FILLER_36_141
*1262 FILLER_36_144
*1263 FILLER_36_150
*1264 FILLER_36_153
*1265 FILLER_36_158
*1266 FILLER_36_161
*1267 FILLER_36_166
*1268 FILLER_36_169
*1269 FILLER_36_174
*1270 FILLER_36_177
*1271 FILLER_36_182
*1272 FILLER_36_185
*1273 FILLER_36_190
*1274 FILLER_36_197
*1275 FILLER_36_200
*1276 FILLER_36_206
*1277 FILLER_36_214
*1278 FILLER_36_27
*1279 FILLER_36_51
*1280 FILLER_36_98
*1281 FILLER_3_109
*1282 FILLER_3_131
*1283 FILLER_3_169
*1284 FILLER_3_181
*1285 FILLER_3_192
*1286 FILLER_3_195
*1287 FILLER_3_198
*1288 FILLER_3_201
*1289 FILLER_3_3
*1290 FILLER_3_34
*1291 FILLER_3_65
*1292 FILLER_3_68
*1293 FILLER_3_76
*1294 FILLER_3_79
*1295 FILLER_3_82
*1296 FILLER_3_85
*1297 FILLER_4_100
*1298 FILLER_4_138
*1299 FILLER_4_141
*1300 FILLER_4_158
*1301 FILLER_4_194
*1302 FILLER_4_197
*1303 FILLER_4_200
*1304 FILLER_4_217
*1305 FILLER_4_27
*1306 FILLER_4_37
*1307 FILLER_4_75
*1308 FILLER_4_78
*1309 FILLER_4_81
*1310 FILLER_4_85
*1311 FILLER_5_113
*1312 FILLER_5_116
*1313 FILLER_5_119
*1314 FILLER_5_140
*1315 FILLER_5_143
*1316 FILLER_5_167
*1317 FILLER_5_174
*1318 FILLER_5_177
*1319 FILLER_5_20
*1320 FILLER_5_202
*1321 FILLER_5_209
*1322 FILLER_5_55
*1323 FILLER_5_83
*1324 FILLER_6_114
*1325 FILLER_6_146
*1326 FILLER_6_149
*1327 FILLER_6_15
*1328 FILLER_6_152
*1329 FILLER_6_155
*1330 FILLER_6_158
*1331 FILLER_6_162
*1332 FILLER_6_165
*1333 FILLER_6_168
*1334 FILLER_6_172
*1335 FILLER_6_175
*1336 FILLER_6_178
*1337 FILLER_6_18
*1338 FILLER_6_181
*1339 FILLER_6_189
*1340 FILLER_6_195
*1341 FILLER_6_27
*1342 FILLER_6_29
*1343 FILLER_6_32
*1344 FILLER_6_42
*1345 FILLER_6_6
*1346 FILLER_6_67
*1347 FILLER_6_83
*1348 FILLER_6_85
*1349 FILLER_7_102
*1350 FILLER_7_116
*1351 FILLER_7_147
*1352 FILLER_7_157
*1353 FILLER_7_160
*1354 FILLER_7_190
*1355 FILLER_7_215
*1356 FILLER_7_3
*1357 FILLER_7_6
*1358 FILLER_7_65
*1359 FILLER_7_83
*1360 FILLER_7_86
*1361 FILLER_7_89
*1362 FILLER_7_92
*1363 FILLER_8_11
*1364 FILLER_8_113
*1365 FILLER_8_116
*1366 FILLER_8_141
*1367 FILLER_8_154
*1368 FILLER_8_157
*1369 FILLER_8_203
*1370 FILLER_8_25
*1371 FILLER_8_29
*1372 FILLER_8_67
*1373 FILLER_8_70
*1374 FILLER_8_85
*1375 FILLER_8_96
*1376 FILLER_8_99
*1377 FILLER_9_101
*1378 FILLER_9_104
*1379 FILLER_9_107
*1380 FILLER_9_110
*1381 FILLER_9_113
*1382 FILLER_9_116
*1383 FILLER_9_119
*1384 FILLER_9_122
*1385 FILLER_9_125
*1386 FILLER_9_128
*1387 FILLER_9_145
*1388 FILLER_9_185
*1389 FILLER_9_3
*1390 FILLER_9_31
*1391 FILLER_9_89
*1392 FILLER_9_92
*1393 FILLER_9_95
*1394 FILLER_9_98
*1395 PHY_EDGE_ROW_0_Left_37
*1396 PHY_EDGE_ROW_0_Right_0
*1397 PHY_EDGE_ROW_10_Left_47
*1398 PHY_EDGE_ROW_10_Right_10
*1399 PHY_EDGE_ROW_11_Left_48
*1400 PHY_EDGE_ROW_11_Right_11
*1401 PHY_EDGE_ROW_12_Left_49
*1402 PHY_EDGE_ROW_12_Right_12
*1403 PHY_EDGE_ROW_13_Left_50
*1404 PHY_EDGE_ROW_13_Right_13
*1405 PHY_EDGE_ROW_14_Left_51
*1406 PHY_EDGE_ROW_14_Right_14
*1407 PHY_EDGE_ROW_15_Left_52
*1408 PHY_EDGE_ROW_15_Right_15
*1409 PHY_EDGE_ROW_16_Left_53
*1410 PHY_EDGE_ROW_16_Right_16
*1411 PHY_EDGE_ROW_17_Left_54
*1412 PHY_EDGE_ROW_17_Right_17
*1413 PHY_EDGE_ROW_18_Left_55
*1414 PHY_EDGE_ROW_18_Right_18
*1415 PHY_EDGE_ROW_19_Left_56
*1416 PHY_EDGE_ROW_19_Right_19
*1417 PHY_EDGE_ROW_1_Left_38
*1418 PHY_EDGE_ROW_1_Right_1
*1419 PHY_EDGE_ROW_20_Left_57
*1420 PHY_EDGE_ROW_20_Right_20
*1421 PHY_EDGE_ROW_21_Left_58
*1422 PHY_EDGE_ROW_21_Right_21
*1423 PHY_EDGE_ROW_22_Left_59
*1424 PHY_EDGE_ROW_22_Right_22
*1425 PHY_EDGE_ROW_23_Left_60
*1426 PHY_EDGE_ROW_23_Right_23
*1427 PHY_EDGE_ROW_24_Left_61
*1428 PHY_EDGE_ROW_24_Right_24
*1429 PHY_EDGE_ROW_25_Left_62
*1430 PHY_EDGE_ROW_25_Right_25
*1431 PHY_EDGE_ROW_26_Left_63
*1432 PHY_EDGE_ROW_26_Right_26
*1433 PHY_EDGE_ROW_27_Left_64
*1434 PHY_EDGE_ROW_27_Right_27
*1435 PHY_EDGE_ROW_28_Left_65
*1436 PHY_EDGE_ROW_28_Right_28
*1437 PHY_EDGE_ROW_29_Left_66
*1438 PHY_EDGE_ROW_29_Right_29
*1439 PHY_EDGE_ROW_2_Left_39
*1440 PHY_EDGE_ROW_2_Right_2
*1441 PHY_EDGE_ROW_30_Left_67
*1442 PHY_EDGE_ROW_30_Right_30
*1443 PHY_EDGE_ROW_31_Left_68
*1444 PHY_EDGE_ROW_31_Right_31
*1445 PHY_EDGE_ROW_32_Left_69
*1446 PHY_EDGE_ROW_32_Right_32
*1447 PHY_EDGE_ROW_33_Left_70
*1448 PHY_EDGE_ROW_33_Right_33
*1449 PHY_EDGE_ROW_34_Left_71
*1450 PHY_EDGE_ROW_34_Right_34
*1451 PHY_EDGE_ROW_35_Left_72
*1452 PHY_EDGE_ROW_35_Right_35
*1453 PHY_EDGE_ROW_36_Left_73
*1454 PHY_EDGE_ROW_36_Right_36
*1455 PHY_EDGE_ROW_3_Left_40
*1456 PHY_EDGE_ROW_3_Right_3
*1457 PHY_EDGE_ROW_4_Left_41
*1458 PHY_EDGE_ROW_4_Right_4
*1459 PHY_EDGE_ROW_5_Left_42
*1460 PHY_EDGE_ROW_5_Right_5
*1461 PHY_EDGE_ROW_6_Left_43
*1462 PHY_EDGE_ROW_6_Right_6
*1463 PHY_EDGE_ROW_7_Left_44
*1464 PHY_EDGE_ROW_7_Right_7
*1465 PHY_EDGE_ROW_8_Left_45
*1466 PHY_EDGE_ROW_8_Right_8
*1467 PHY_EDGE_ROW_9_Left_46
*1468 PHY_EDGE_ROW_9_Right_9
*1469 TAP_TAPCELL_ROW_0_74
*1470 TAP_TAPCELL_ROW_0_75
*1471 TAP_TAPCELL_ROW_0_76
*1472 TAP_TAPCELL_ROW_0_77
*1473 TAP_TAPCELL_ROW_0_78
*1474 TAP_TAPCELL_ROW_0_79
*1475 TAP_TAPCELL_ROW_0_80
*1476 TAP_TAPCELL_ROW_10_112
*1477 TAP_TAPCELL_ROW_10_113
*1478 TAP_TAPCELL_ROW_10_114
*1479 TAP_TAPCELL_ROW_10_115
*1480 TAP_TAPCELL_ROW_11_116
*1481 TAP_TAPCELL_ROW_11_117
*1482 TAP_TAPCELL_ROW_11_118
*1483 TAP_TAPCELL_ROW_12_119
*1484 TAP_TAPCELL_ROW_12_120
*1485 TAP_TAPCELL_ROW_12_121
*1486 TAP_TAPCELL_ROW_12_122
*1487 TAP_TAPCELL_ROW_13_123
*1488 TAP_TAPCELL_ROW_13_124
*1489 TAP_TAPCELL_ROW_13_125
*1490 TAP_TAPCELL_ROW_14_126
*1491 TAP_TAPCELL_ROW_14_127
*1492 TAP_TAPCELL_ROW_14_128
*1493 TAP_TAPCELL_ROW_14_129
*1494 TAP_TAPCELL_ROW_15_130
*1495 TAP_TAPCELL_ROW_15_131
*1496 TAP_TAPCELL_ROW_15_132
*1497 TAP_TAPCELL_ROW_16_133
*1498 TAP_TAPCELL_ROW_16_134
*1499 TAP_TAPCELL_ROW_16_135
*1500 TAP_TAPCELL_ROW_16_136
*1501 TAP_TAPCELL_ROW_17_137
*1502 TAP_TAPCELL_ROW_17_138
*1503 TAP_TAPCELL_ROW_17_139
*1504 TAP_TAPCELL_ROW_18_140
*1505 TAP_TAPCELL_ROW_18_141
*1506 TAP_TAPCELL_ROW_18_142
*1507 TAP_TAPCELL_ROW_18_143
*1508 TAP_TAPCELL_ROW_19_144
*1509 TAP_TAPCELL_ROW_19_145
*1510 TAP_TAPCELL_ROW_19_146
*1511 TAP_TAPCELL_ROW_1_81
*1512 TAP_TAPCELL_ROW_1_82
*1513 TAP_TAPCELL_ROW_1_83
*1514 TAP_TAPCELL_ROW_20_147
*1515 TAP_TAPCELL_ROW_20_148
*1516 TAP_TAPCELL_ROW_20_149
*1517 TAP_TAPCELL_ROW_20_150
*1518 TAP_TAPCELL_ROW_21_151
*1519 TAP_TAPCELL_ROW_21_152
*1520 TAP_TAPCELL_ROW_21_153
*1521 TAP_TAPCELL_ROW_22_154
*1522 TAP_TAPCELL_ROW_22_155
*1523 TAP_TAPCELL_ROW_22_156
*1524 TAP_TAPCELL_ROW_22_157
*1525 TAP_TAPCELL_ROW_23_158
*1526 TAP_TAPCELL_ROW_23_159
*1527 TAP_TAPCELL_ROW_23_160
*1528 TAP_TAPCELL_ROW_24_161
*1529 TAP_TAPCELL_ROW_24_162
*1530 TAP_TAPCELL_ROW_24_163
*1531 TAP_TAPCELL_ROW_24_164
*1532 TAP_TAPCELL_ROW_25_165
*1533 TAP_TAPCELL_ROW_25_166
*1534 TAP_TAPCELL_ROW_25_167
*1535 TAP_TAPCELL_ROW_26_168
*1536 TAP_TAPCELL_ROW_26_169
*1537 TAP_TAPCELL_ROW_26_170
*1538 TAP_TAPCELL_ROW_26_171
*1539 TAP_TAPCELL_ROW_27_172
*1540 TAP_TAPCELL_ROW_27_173
*1541 TAP_TAPCELL_ROW_27_174
*1542 TAP_TAPCELL_ROW_28_175
*1543 TAP_TAPCELL_ROW_28_176
*1544 TAP_TAPCELL_ROW_28_177
*1545 TAP_TAPCELL_ROW_28_178
*1546 TAP_TAPCELL_ROW_29_179
*1547 TAP_TAPCELL_ROW_29_180
*1548 TAP_TAPCELL_ROW_29_181
*1549 TAP_TAPCELL_ROW_2_84
*1550 TAP_TAPCELL_ROW_2_85
*1551 TAP_TAPCELL_ROW_2_86
*1552 TAP_TAPCELL_ROW_2_87
*1553 TAP_TAPCELL_ROW_30_182
*1554 TAP_TAPCELL_ROW_30_183
*1555 TAP_TAPCELL_ROW_30_184
*1556 TAP_TAPCELL_ROW_30_185
*1557 TAP_TAPCELL_ROW_31_186
*1558 TAP_TAPCELL_ROW_31_187
*1559 TAP_TAPCELL_ROW_31_188
*1560 TAP_TAPCELL_ROW_32_189
*1561 TAP_TAPCELL_ROW_32_190
*1562 TAP_TAPCELL_ROW_32_191
*1563 TAP_TAPCELL_ROW_32_192
*1564 TAP_TAPCELL_ROW_33_193
*1565 TAP_TAPCELL_ROW_33_194
*1566 TAP_TAPCELL_ROW_33_195
*1567 TAP_TAPCELL_ROW_34_196
*1568 TAP_TAPCELL_ROW_34_197
*1569 TAP_TAPCELL_ROW_34_198
*1570 TAP_TAPCELL_ROW_34_199
*1571 TAP_TAPCELL_ROW_35_200
*1572 TAP_TAPCELL_ROW_35_201
*1573 TAP_TAPCELL_ROW_35_202
*1574 TAP_TAPCELL_ROW_36_203
*1575 TAP_TAPCELL_ROW_36_204
*1576 TAP_TAPCELL_ROW_36_205
*1577 TAP_TAPCELL_ROW_36_206
*1578 TAP_TAPCELL_ROW_36_207
*1579 TAP_TAPCELL_ROW_36_208
*1580 TAP_TAPCELL_ROW_36_209
*1581 TAP_TAPCELL_ROW_3_88
*1582 TAP_TAPCELL_ROW_3_89
*1583 TAP_TAPCELL_ROW_3_90
*1584 TAP_TAPCELL_ROW_4_91
*1585 TAP_TAPCELL_ROW_4_92
*1586 TAP_TAPCELL_ROW_4_93
*1587 TAP_TAPCELL_ROW_4_94
*1588 TAP_TAPCELL_ROW_5_95
*1589 TAP_TAPCELL_ROW_5_96
*1590 TAP_TAPCELL_ROW_5_97
*1591 TAP_TAPCELL_ROW_6_100
*1592 TAP_TAPCELL_ROW_6_101
*1593 TAP_TAPCELL_ROW_6_98
*1594 TAP_TAPCELL_ROW_6_99
*1595 TAP_TAPCELL_ROW_7_102
*1596 TAP_TAPCELL_ROW_7_103
*1597 TAP_TAPCELL_ROW_7_104
*1598 TAP_TAPCELL_ROW_8_105
*1599 TAP_TAPCELL_ROW_8_106
*1600 TAP_TAPCELL_ROW_8_107
*1601 TAP_TAPCELL_ROW_8_108
*1602 TAP_TAPCELL_ROW_9_109
*1603 TAP_TAPCELL_ROW_9_110
*1604 TAP_TAPCELL_ROW_9_111
*1605 _0404_
*1606 _0405_
*1607 _0406_
*1608 _0407_
*1609 _0408_
*1610 _0409_
*1611 _0410_
*1612 _0411_
*1613 _0412_
*1614 _0413_
*1615 _0414_
*1616 _0415_
*1617 _0416_
*1618 _0417_
*1619 _0418_
*1620 _0419_
*1621 _0420_
*1622 _0421_
*1623 _0422_
*1624 _0423_
*1625 _0424_
*1626 _0425_
*1627 _0426_
*1628 _0427_
*1629 _0428_
*1630 _0429_
*1631 _0430_
*1632 _0431_
*1633 _0432_
*1634 _0433_
*1635 _0434_
*1636 _0435_
*1637 _0436_
*1638 _0437_
*1639 _0438_
*1640 _0439_
*1641 _0440_
*1642 _0441_
*1643 _0442_
*1644 _0443_
*1645 _0444_
*1646 _0445_
*1647 _0446_
*1648 _0447_
*1649 _0448_
*1650 _0449_
*1651 _0450_
*1652 _0451_
*1653 _0452_
*1654 _0453_
*1655 _0454_
*1656 _0455_
*1657 _0456_
*1658 _0457_
*1659 _0458_
*1660 _0459_
*1661 _0460_
*1662 _0461_
*1663 _0462_
*1664 _0463_
*1665 _0464_
*1666 _0465_
*1667 _0466_
*1668 _0467_
*1669 _0468_
*1670 _0469_
*1671 _0470_
*1672 _0471_
*1673 _0472_
*1674 _0473_
*1675 _0474_
*1676 _0475_
*1677 _0476_
*1678 _0477_
*1679 _0478_
*1680 _0479_
*1681 _0480_
*1682 _0481_
*1683 _0482_
*1684 _0483_
*1685 _0484_
*1686 _0485_
*1687 _0486_
*1688 _0487_
*1689 _0488_
*1690 _0489_
*1691 _0490_
*1692 _0491_
*1693 _0492_
*1694 _0493_
*1695 _0494_
*1696 _0495_
*1697 _0496_
*1698 _0497_
*1699 _0498_
*1700 _0499_
*1701 _0500_
*1702 _0501_
*1703 _0502_
*1704 _0503_
*1705 _0504_
*1706 _0505_
*1707 _0506_
*1708 _0507_
*1709 _0508_
*1710 _0509_
*1711 _0510_
*1712 _0511_
*1713 _0512_
*1714 _0513_
*1715 _0514_
*1716 _0515_
*1717 _0516_
*1718 _0517_
*1719 _0518_
*1720 _0519_
*1721 _0520_
*1722 _0521_
*1723 _0522_
*1724 _0523_
*1725 _0524_
*1726 _0525_
*1727 _0526_
*1728 _0527_
*1729 _0528_
*1730 _0529_
*1731 _0530_
*1732 _0531_
*1733 _0532_
*1734 _0533_
*1735 _0534_
*1736 _0535_
*1737 _0536_
*1738 _0537_
*1739 _0538_
*1740 _0539_
*1741 _0540_
*1742 _0541_
*1743 _0542_
*1744 _0543_
*1745 _0544_
*1746 _0545_
*1747 _0546_
*1748 _0547_
*1749 _0548_
*1750 _0549_
*1751 _0550_
*1752 _0551_
*1753 _0552_
*1754 _0553_
*1755 _0554_
*1756 _0555_
*1757 _0556_
*1758 _0557_
*1759 _0558_
*1760 _0559_
*1761 _0560_
*1762 _0561_
*1763 _0562_
*1764 _0563_
*1765 _0564_
*1766 _0565_
*1767 _0566_
*1768 _0567_
*1769 _0568_
*1770 _0569_
*1771 _0570_
*1772 _0571_
*1773 _0572_
*1774 _0573_
*1775 _0574_
*1776 _0575_
*1777 _0576_
*1778 _0577_
*1779 _0578_
*1780 _0579_
*1781 _0580_
*1782 _0581_
*1783 _0582_
*1784 _0583_
*1785 _0584_
*1786 _0585_
*1787 _0586_
*1788 _0587_
*1789 _0588_
*1790 _0589_
*1791 _0590_
*1792 _0591_
*1793 _0592_
*1794 _0593_
*1795 _0594_
*1796 _0595_
*1797 _0596_
*1798 _0597_
*1799 _0598_
*1800 _0599_
*1801 _0600_
*1802 _0601_
*1803 _0602_
*1804 _0603_
*1805 _0604_
*1806 _0605_
*1807 _0606_
*1808 _0607_
*1809 _0608_
*1810 _0609_
*1811 _0610_
*1812 _0611_
*1813 _0612_
*1814 _0613_
*1815 _0614_
*1816 _0615_
*1817 _0616_
*1818 _0617_
*1819 _0618_
*1820 _0619_
*1821 _0620_
*1822 _0621_
*1823 _0622_
*1824 _0623_
*1825 _0624_
*1826 _0625_
*1827 _0626_
*1828 _0627_
*1829 _0628_
*1830 _0629_
*1831 _0630_
*1832 _0631_
*1833 _0632_
*1834 _0633_
*1835 _0634_
*1836 _0635_
*1837 _0636_
*1838 _0637_
*1839 _0638_
*1840 _0639_
*1841 _0640_
*1842 _0641_
*1843 _0642_
*1844 _0643_
*1845 _0644_
*1846 _0645_
*1847 _0646_
*1848 _0647_
*1849 _0648_
*1850 _0649_
*1851 _0650_
*1852 _0651_
*1853 _0652_
*1854 _0653_
*1855 _0654_
*1856 _0655_
*1857 _0656_
*1858 _0657_
*1859 _0658_
*1860 _0659_
*1861 _0660_
*1862 _0661_
*1863 _0662_
*1864 _0663_
*1865 _0664_
*1866 _0665_
*1867 _0666_
*1868 _0667_
*1869 _0668_
*1870 _0669_
*1871 _0670_
*1872 _0671_
*1873 _0672_
*1874 _0673_
*1875 _0674_
*1876 _0675_
*1877 _0676_
*1878 _0677_
*1879 _0678_
*1880 _0679_
*1881 _0680_
*1882 _0681_
*1883 _0682_
*1884 _0683_
*1885 _0684_
*1886 _0685_
*1887 _0686_
*1888 _0687_
*1889 _0688_
*1890 _0689_
*1891 _0690_
*1892 _0691_
*1893 _0692_
*1894 _0693_
*1895 _0694_
*1896 _0695_
*1897 _0696_
*1898 _0697_
*1899 _0698_
*1900 _0699_
*1901 _0700_
*1902 _0701_
*1903 _0702_
*1904 _0703_
*1905 _0704_
*1906 _0705_
*1907 _0706_
*1908 _0707_
*1909 _0708_
*1910 _0709_
*1911 _0710_
*1912 _0711_
*1913 _0712_
*1914 _0713_
*1915 _0714_
*1916 _0715_
*1917 _0716_
*1918 _0717_
*1919 _0718_
*1920 _0719_
*1921 _0720_
*1922 _0721_
*1923 _0722_
*1924 _0723_
*1925 _0724_
*1926 _0725_
*1927 _0726_
*1928 _0727_
*1929 _0728_
*1930 _0729_
*1931 _0730_
*1932 _0731_
*1933 _0732_
*1934 _0733_
*1935 _0734_
*1936 _0735_
*1937 _0736_
*1938 _0737_
*1939 _0738_
*1940 _0739_
*1941 _0740_
*1942 _0741_
*1943 _0742_
*1944 _0743_
*1945 _0744_
*1946 _0745_
*1947 _0746_
*1948 _0747_
*1949 _0748_
*1950 _0749_
*1951 _0750_
*1952 _0751_
*1953 _0752_
*1954 _0753_
*1955 _0754_
*1956 _0755_
*1957 _0756_
*1958 _0757_
*1959 _0758_
*1960 _0759_
*1961 _0760_
*1962 _0761_
*1963 _0762_
*1964 _0763_
*1965 _0764_
*1966 _0765_
*1967 _0766_
*1968 _0767_
*1969 _0768_
*1970 _0769_
*1971 _0770_
*1972 _0771_
*1973 _0772_
*1974 _0773_
*1975 _0774_
*1976 _0775_
*1977 _0776_
*1978 _0777_
*1979 _0778_
*1980 _0779_
*1981 _0780_
*1982 _0781_
*1983 _0782_
*1984 _0783_
*1985 _0784_
*1986 _0785_
*1987 _0786_
*1988 _0787_
*1989 _0788_
*1990 _0789_
*1991 _0790_
*1992 _0791_
*1993 _0792_
*1994 _0793_
*1995 _0794_
*1996 _0795_
*1997 _0796_
*1998 _0797_
*1999 _0798_
*2000 _0799_
*2001 _0800_
*2002 _0801_
*2003 _0802_
*2004 _0803_
*2005 _0804_
*2006 _0805_
*2007 _0806_
*2008 _0807_
*2009 _0808_
*2010 _0809_
*2011 _0810_
*2012 _0811_
*2013 _0812_
*2014 _0813_
*2015 _0814_
*2016 _0815_
*2017 _0816_
*2018 _0817_
*2019 _0818_
*2020 _0819_
*2021 _0820_
*2022 _0821_
*2023 _0822_
*2024 _0823_
*2025 _0824_
*2026 _0825_
*2027 _0826_
*2028 _0827_
*2029 _0828_
*2030 _0829_
*2031 _0830_
*2032 _0831_
*2033 _0832_
*2034 _0833_
*2035 _0834_
*2036 _0835_
*2037 _0836_
*2038 _0837_
*2039 _0838_
*2040 _0839_
*2041 _0840_
*2042 _0841_
*2043 _0842_
*2044 _0843_
*2045 _0844_
*2046 _0845_
*2047 _0846_
*2048 _0847_
*2049 _0848_
*2050 _0849_
*2051 _0850_
*2052 _0851_
*2053 _0852_
*2054 _0853_
*2055 _0854_
*2056 _0855_
*2057 _0856_
*2058 _0857_
*2059 _0858_
*2060 _0859_
*2061 _0860_
*2062 _0861_
*2063 _0862_
*2064 _0863_
*2065 _0864_
*2066 _0865_
*2067 _0866_
*2068 _0867_
*2069 _0868_
*2070 _0869_
*2071 _0870_
*2072 _0871_
*2073 _0872_
*2074 _0873_
*2075 _0874_
*2076 _0875_
*2077 _0876_
*2078 _0877_
*2079 _0878_
*2080 _0879_
*2081 _0880_
*2082 _0881_
*2083 _0882_
*2084 _0883_
*2085 _0884_
*2086 _0885_
*2087 _0886_
*2088 _0887_
*2089 _0888_
*2090 _0889_
*2091 _0890_
*2092 _0891_
*2093 _0892_
*2094 _0893_
*2095 _0894_
*2096 _0895_
*2097 _0896_
*2098 _0897_
*2099 _0898_
*2100 _0899_
*2101 _0900_
*2102 _0901_
*2103 _0902_
*2104 _0903_
*2105 _0904_
*2106 _0905_
*2107 _0906_
*2108 _0907_
*2109 _0908_
*2110 _0909_
*2111 _0910_
*2112 _0911_
*2113 _0912_
*2114 _0913_
*2115 _0914_
*2116 _0915_
*2117 _0916_
*2118 _0917_
*2119 _0918_
*2120 _0919_
*2121 _0920_
*2122 _0921_
*2123 clkbuf_0_clk
*2124 clkbuf_4_0_0_clk
*2125 clkbuf_4_10_0_clk
*2126 clkbuf_4_11_0_clk
*2127 clkbuf_4_12_0_clk
*2128 clkbuf_4_13_0_clk
*2129 clkbuf_4_14_0_clk
*2130 clkbuf_4_15_0_clk
*2131 clkbuf_4_1_0_clk
*2132 clkbuf_4_2_0_clk
*2133 clkbuf_4_3_0_clk
*2134 clkbuf_4_4_0_clk
*2135 clkbuf_4_5_0_clk
*2136 clkbuf_4_6_0_clk
*2137 clkbuf_4_7_0_clk
*2138 clkbuf_4_8_0_clk
*2139 clkbuf_4_9_0_clk
*2140 clkload0
*2141 clkload1
*2142 clkload10
*2143 clkload11
*2144 clkload12
*2145 clkload13
*2146 clkload2
*2147 clkload3
*2148 clkload4
*2149 clkload5
*2150 clkload6
*2151 clkload7
*2152 clkload8
*2153 clkload9
*2154 fanout35
*2155 fanout41
*2156 fanout43
*2157 fanout44
*2158 fanout46
*2159 fanout48
*2160 fanout50
*2161 fanout51
*2162 fanout52
*2163 fanout54
*2164 fanout56
*2165 fanout58
*2166 fanout60
*2167 fanout62
*2168 fanout63
*2169 hold156
*2170 hold157
*2171 hold158
*2172 hold159
*2173 hold160
*2174 hold161
*2175 hold162
*2176 hold163
*2177 hold164
*2178 hold165
*2179 hold166
*2180 hold167
*2181 hold168
*2182 hold169
*2183 hold170
*2184 hold171
*2185 hold172
*2186 hold173
*2187 hold174
*2188 hold175
*2189 hold176
*2190 hold177
*2191 hold178
*2192 hold179
*2193 hold180
*2194 hold181
*2195 hold182
*2196 hold183
*2197 hold184
*2198 hold185
*2199 hold186
*2200 hold187
*2201 hold188
*2202 hold189
*2203 hold190
*2204 hold191
*2205 hold192
*2206 hold193
*2207 hold194
*2208 hold195
*2209 hold196
*2210 hold197
*2211 hold198
*2212 hold199
*2213 hold200
*2214 hold201
*2215 hold202
*2216 hold203
*2217 hold204
*2218 hold205
*2219 hold206
*2220 hold207
*2221 hold208
*2222 hold209
*2223 hold210
*2224 hold211
*2225 hold212
*2226 hold213
*2227 hold214
*2228 hold215
*2229 hold216
*2230 hold217
*2231 hold218
*2232 hold219
*2233 hold220
*2234 hold221
*2235 hold222
*2236 hold223
*2237 hold224
*2238 hold225
*2239 hold226
*2240 hold227
*2241 hold228
*2242 hold229
*2243 hold230
*2244 hold231
*2245 hold232
*2246 hold233
*2247 hold234
*2248 hold235
*2249 hold236
*2250 hold237
*2251 hold238
*2252 hold239
*2253 input1
*2254 load_slew42
*2255 load_slew45
*2256 load_slew47
*2257 load_slew49
*2258 load_slew53
*2259 load_slew55
*2260 load_slew57
*2261 load_slew59
*2262 load_slew61
*2263 max_cap36
*2264 max_cap37
*2265 max_cap38
*2266 max_cap40
*2267 output10
*2268 output11
*2269 output12
*2270 output13
*2271 output14
*2272 output15
*2273 output16
*2274 output17
*2275 output18
*2276 output19
*2277 output2
*2278 output20
*2279 output21
*2280 output22
*2281 output23
*2282 output24
*2283 output25
*2284 output26
*2285 output27
*2286 output28
*2287 output29
*2288 output3
*2289 output30
*2290 output31
*2291 output32
*2292 output33
*2293 output34
*2294 output4
*2295 output5
*2296 output6
*2297 output7
*2298 output8
*2299 output9
*2300 soc_top
*2301 soc_top_100
*2302 soc_top_101
*2303 soc_top_102
*2304 soc_top_103
*2305 soc_top_104
*2306 soc_top_105
*2307 soc_top_106
*2308 soc_top_107
*2309 soc_top_108
*2310 soc_top_109
*2311 soc_top_110
*2312 soc_top_111
*2313 soc_top_112
*2314 soc_top_113
*2315 soc_top_114
*2316 soc_top_115
*2317 soc_top_116
*2318 soc_top_117
*2319 soc_top_118
*2320 soc_top_119
*2321 soc_top_120
*2322 soc_top_121
*2323 soc_top_122
*2324 soc_top_123
*2325 soc_top_124
*2326 soc_top_125
*2327 soc_top_126
*2328 soc_top_127
*2329 soc_top_128
*2330 soc_top_129
*2331 soc_top_130
*2332 soc_top_131
*2333 soc_top_132
*2334 soc_top_133
*2335 soc_top_134
*2336 soc_top_135
*2337 soc_top_136
*2338 soc_top_137
*2339 soc_top_138
*2340 soc_top_139
*2341 soc_top_140
*2342 soc_top_141
*2343 soc_top_142
*2344 soc_top_143
*2345 soc_top_144
*2346 soc_top_145
*2347 soc_top_146
*2348 soc_top_147
*2349 soc_top_148
*2350 soc_top_149
*2351 soc_top_150
*2352 soc_top_151
*2353 soc_top_152
*2354 soc_top_153
*2355 soc_top_154
*2356 soc_top_155
*2357 soc_top_64
*2358 soc_top_65
*2359 soc_top_66
*2360 soc_top_67
*2361 soc_top_68
*2362 soc_top_69
*2363 soc_top_70
*2364 soc_top_71
*2365 soc_top_72
*2366 soc_top_73
*2367 soc_top_74
*2368 soc_top_75
*2369 soc_top_76
*2370 soc_top_77
*2371 soc_top_78
*2372 soc_top_79
*2373 soc_top_80
*2374 soc_top_81
*2375 soc_top_82
*2376 soc_top_83
*2377 soc_top_84
*2378 soc_top_85
*2379 soc_top_86
*2380 soc_top_87
*2381 soc_top_88
*2382 soc_top_89
*2383 soc_top_90
*2384 soc_top_91
*2385 soc_top_92
*2386 soc_top_93
*2387 soc_top_94
*2388 soc_top_95
*2389 soc_top_96
*2390 soc_top_97
*2391 soc_top_98
*2392 soc_top_99
*2393 wire39

*PORTS
Hsync O
Vsync O
blue[0] O
blue[1] O
blue[2] O
blue[3] O
blue[4] O
blue[5] O
blue[6] O
blue[7] O
clk I
cpu_stall O
display_enable O
green[0] O
green[1] O
green[2] O
green[3] O
green[4] O
green[5] O
green[6] O
green[7] O
mem_addr[0] O
mem_addr[10] O
mem_addr[11] O
mem_addr[12] O
mem_addr[13] O
mem_addr[14] O
mem_addr[15] O
mem_addr[16] O
mem_addr[17] O
mem_addr[18] O
mem_addr[19] O
mem_addr[1] O
mem_addr[20] O
mem_addr[21] O
mem_addr[22] O
mem_addr[23] O
mem_addr[24] O
mem_addr[25] O
mem_addr[26] O
mem_addr[27] O
mem_addr[28] O
mem_addr[29] O
mem_addr[2] O
mem_addr[30] O
mem_addr[31] O
mem_addr[3] O
mem_addr[4] O
mem_addr[5] O
mem_addr[6] O
mem_addr[7] O
mem_addr[8] O
mem_addr[9] O
mem_read O
mem_wdata[0] O
mem_wdata[10] O
mem_wdata[11] O
mem_wdata[12] O
mem_wdata[13] O
mem_wdata[14] O
mem_wdata[15] O
mem_wdata[16] O
mem_wdata[17] O
mem_wdata[18] O
mem_wdata[19] O
mem_wdata[1] O
mem_wdata[20] O
mem_wdata[21] O
mem_wdata[22] O
mem_wdata[23] O
mem_wdata[24] O
mem_wdata[25] O
mem_wdata[26] O
mem_wdata[27] O
mem_wdata[28] O
mem_wdata[29] O
mem_wdata[2] O
mem_wdata[30] O
mem_wdata[31] O
mem_wdata[3] O
mem_wdata[4] O
mem_wdata[5] O
mem_wdata[6] O
mem_wdata[7] O
mem_wdata[8] O
mem_wdata[9] O
mem_write O
pcRegister[0] O
pcRegister[10] O
pcRegister[11] O
pcRegister[12] O
pcRegister[13] O
pcRegister[14] O
pcRegister[15] O
pcRegister[16] O
pcRegister[17] O
pcRegister[18] O
pcRegister[19] O
pcRegister[1] O
pcRegister[20] O
pcRegister[21] O
pcRegister[22] O
pcRegister[23] O
pcRegister[24] O
pcRegister[25] O
pcRegister[26] O
pcRegister[27] O
pcRegister[28] O
pcRegister[29] O
pcRegister[2] O
pcRegister[30] O
pcRegister[31] O
pcRegister[3] O
pcRegister[4] O
pcRegister[5] O
pcRegister[6] O
pcRegister[7] O
pcRegister[8] O
pcRegister[9] O
red[0] O
red[1] O
red[2] O
red[3] O
red[4] O
red[5] O
red[6] O
red[7] O
reset I

*D_NET *1 0.00318237
*CONN
*P Hsync O
*I *2277:X O *D sky130_fd_sc_hd__clkdlybuf4s25_1
*CAP
1 Hsync 0.000783295
2 *2277:X 0.000783295
3 Hsync Vsync 0.000942639
4 Hsync *1922:B 5.78525e-05
5 Hsync *2122:SET_B 9.84729e-05
6 Hsync *2184:A 2.84026e-05
7 Hsync *2288:A 0.000488417
*RES
1 *2277:X Hsync 39.5162 
*END

*D_NET *4 0.0021976
*CONN
*P Vsync O
*I *2288:X O *D sky130_fd_sc_hd__clkdlybuf4s25_1
*CAP
1 Vsync 0.000611541
2 *2288:X 0.000611541
3 Vsync *2184:A 3.18747e-05
4 Hsync Vsync 0.000942639
*RES
1 *2288:X Vsync 33.5538 
*END

*D_NET *5 0.00168519
*CONN
*P blue[0] O
*I *2300:LO O *D sky130_fd_sc_hd__conb_1
*CAP
1 blue[0] 0.000798855
2 *2300:LO 0.000798855
3 blue[0] blue[1] 8.74843e-05
*RES
1 *2300:LO blue[0] 22.9076 
*END

*D_NET *6 0.00157097
*CONN
*P blue[1] O
*I *2357:LO O *D sky130_fd_sc_hd__conb_1
*CAP
1 blue[1] 0.000697999
2 *2357:LO 0.000697999
3 blue[1] blue[2] 8.74843e-05
4 blue[0] blue[1] 8.74843e-05
*RES
1 *2357:LO blue[1] 22.9076 
*END

*D_NET *7 0.00157097
*CONN
*P blue[2] O
*I *2358:LO O *D sky130_fd_sc_hd__conb_1
*CAP
1 blue[2] 0.000697999
2 *2358:LO 0.000697999
3 blue[2] blue[3] 8.74843e-05
4 blue[1] blue[2] 8.74843e-05
*RES
1 *2358:LO blue[2] 22.9076 
*END

*D_NET *8 0.00157097
*CONN
*P blue[3] O
*I *2359:LO O *D sky130_fd_sc_hd__conb_1
*CAP
1 blue[3] 0.000697999
2 *2359:LO 0.000697999
3 blue[3] blue[4] 8.74843e-05
4 blue[2] blue[3] 8.74843e-05
*RES
1 *2359:LO blue[3] 22.9076 
*END

*D_NET *9 0.00157097
*CONN
*P blue[4] O
*I *2360:LO O *D sky130_fd_sc_hd__conb_1
*CAP
1 blue[4] 0.000697999
2 *2360:LO 0.000697999
3 blue[4] blue[5] 8.74843e-05
4 blue[3] blue[4] 8.74843e-05
*RES
1 *2360:LO blue[4] 22.9076 
*END

*D_NET *10 0.00157054
*CONN
*P blue[5] O
*I *2361:LO O *D sky130_fd_sc_hd__conb_1
*CAP
1 blue[5] 0.000701648
2 *2361:LO 0.000701648
3 blue[5] blue[6] 7.97606e-05
4 blue[4] blue[5] 8.74843e-05
*RES
1 *2361:LO blue[5] 22.9076 
*END

*D_NET *11 0.00203358
*CONN
*P blue[6] O
*I *2362:LO O *D sky130_fd_sc_hd__conb_1
*CAP
1 blue[6] 0.00097409
2 *2362:LO 0.00097409
3 blue[6] blue[7] 5.64006e-06
4 blue[5] blue[6] 7.97606e-05
*RES
1 *2362:LO blue[6] 23.9088 
*END

*D_NET *12 0.00240892
*CONN
*P blue[7] O
*I *2363:LO O *D sky130_fd_sc_hd__conb_1
*CAP
1 blue[7] 0.00120164
2 *2363:LO 0.00120164
3 blue[6] blue[7] 5.64006e-06
*RES
1 *2363:LO blue[7] 22.9076 
*END

*D_NET *13 0.0121158
*CONN
*P clk I
*I *2123:A I *D sky130_fd_sc_hd__clkbuf_16
*CAP
1 clk 0.00229866
2 *2123:A 0.000106598
3 *13:14 0.000793028
4 *13:12 0.00262902
5 *13:8 0.00424125
6 *2123:A *1798:B1 4.4088e-05
7 *13:8 mem_addr[0] 0.000119522
8 *13:8 mem_addr[2] 0
9 *13:8 *2253:A 9.36345e-05
10 *13:12 *1612:A 0
11 *13:12 *1734:B 1.56789e-05
12 *13:12 *1737:B 0
13 *13:12 *1739:B 9.34212e-05
14 *13:12 *1766:B1_N 0
15 *13:12 *1796:C 0
16 *13:12 *1797:C1 0.00022706
17 *13:12 *1944:A 0
18 *13:12 *2055:D 0.000180563
19 *13:12 *2055:RESET_B 0.000117062
20 *13:12 *2056:D 3.92589e-05
21 *13:12 *2082:SET_B 3.73228e-05
22 *13:12 *2094:SET_B 0.000129241
23 *13:12 *2096:CLK 0
24 *13:12 *327:10 0.000193664
25 *13:12 *535:154 0
26 *13:12 *552:29 0.000144197
27 *13:12 *553:8 0
28 *13:12 *692:59 5.51018e-05
29 *13:12 *692:78 0.000306133
30 *13:12 *718:10 0
31 *13:14 *1620:A 6.30345e-05
32 *13:14 *1620:B 8.61605e-05
33 *13:14 *1798:A2 6.19074e-05
34 *13:14 *1798:B1 1.34564e-05
35 *13:14 *718:10 2.66958e-05
*RES
1 clk *13:8 8.7304 
2 *13:8 *13:12 46.0625 
3 *13:12 *13:14 10.5982 
4 *13:14 *2123:A 11.5946 
*END

*D_NET *14 0.0014297
*CONN
*P cpu_stall O
*I *2294:X O *D sky130_fd_sc_hd__clkdlybuf4s25_1
*CAP
1 cpu_stall 0.000714848
2 *2294:X 0.000714848
3 cpu_stall *447:34 0
*RES
1 *2294:X cpu_stall 26.0213 
*END

*D_NET *15 0.00142141
*CONN
*P display_enable O
*I *2364:LO O *D sky130_fd_sc_hd__conb_1
*CAP
1 display_enable 0.000710704
2 *2364:LO 0.000710704
3 display_enable *1985:A 0
*RES
1 *2364:LO display_enable 26.3249 
*END

*D_NET *16 0.00177645
*CONN
*P green[0] O
*I *2365:LO O *D sky130_fd_sc_hd__conb_1
*CAP
1 green[0] 0.000820204
2 *2365:LO 0.000820204
3 green[0] green[1] 8.37169e-05
4 green[0] red[3] 4.54935e-05
5 green[0] red[6] 5.7836e-06
6 green[0] *2045:D 1.04953e-06
*RES
1 *2365:LO green[0] 22.9797 
*END

*D_NET *17 0.00198041
*CONN
*P green[1] O
*I *2366:LO O *D sky130_fd_sc_hd__conb_1
*CAP
1 green[1] 0.000744266
2 *2366:LO 0.000744266
3 green[1] green[2] 8.52226e-05
4 green[1] red[3] 2.72626e-05
5 green[1] red[6] 0.000295675
6 green[0] green[1] 8.37169e-05
*RES
1 *2366:LO green[1] 22.9076 
*END

*D_NET *18 0.00159433
*CONN
*P green[2] O
*I *2367:LO O *D sky130_fd_sc_hd__conb_1
*CAP
1 green[2] 0.000710811
2 *2367:LO 0.000710811
3 green[2] green[3] 8.74843e-05
4 green[1] green[2] 8.52226e-05
*RES
1 *2367:LO green[2] 22.9076 
*END

*D_NET *19 0.00158163
*CONN
*P green[3] O
*I *2368:LO O *D sky130_fd_sc_hd__conb_1
*CAP
1 green[3] 0.000703333
2 *2368:LO 0.000703333
3 green[3] green[4] 8.74843e-05
4 green[2] green[3] 8.74843e-05
*RES
1 *2368:LO green[3] 22.9076 
*END

*D_NET *20 0.00158163
*CONN
*P green[4] O
*I *2369:LO O *D sky130_fd_sc_hd__conb_1
*CAP
1 green[4] 0.000703333
2 *2369:LO 0.000703333
3 green[4] green[5] 8.74843e-05
4 green[3] green[4] 8.74843e-05
*RES
1 *2369:LO green[4] 22.9076 
*END

*D_NET *21 0.00157652
*CONN
*P green[5] O
*I *2370:LO O *D sky130_fd_sc_hd__conb_1
*CAP
1 green[5] 0.000744516
2 *2370:LO 0.000744516
3 green[4] green[5] 8.74843e-05
*RES
1 *2370:LO green[5] 22.9076 
*END

*D_NET *22 0.00164334
*CONN
*P green[6] O
*I *2371:LO O *D sky130_fd_sc_hd__conb_1
*CAP
1 green[6] 0.000821668
2 *2371:LO 0.000821668
3 green[6] green[7] 0
*RES
1 *2371:LO green[6] 40.3879 
*END

*D_NET *23 0.00124107
*CONN
*P green[7] O
*I *2372:LO O *D sky130_fd_sc_hd__conb_1
*CAP
1 green[7] 0.000620534
2 *2372:LO 0.000620534
3 green[6] green[7] 0
*RES
1 *2372:LO green[7] 31.9084 
*END

*D_NET *24 0.00165944
*CONN
*P mem_addr[0] O
*I *2373:LO O *D sky130_fd_sc_hd__conb_1
*CAP
1 mem_addr[0] 0.000480946
2 *2373:LO 0.000480946
3 mem_addr[0] mem_addr[1] 0.000377408
4 mem_addr[0] mem_addr[7] 0.000106985
5 mem_addr[0] *2253:A 9.36345e-05
6 *13:8 mem_addr[0] 0.000119522
*RES
1 *2373:LO mem_addr[0] 22.413 
*END

*D_NET *25 0.003053
*CONN
*P mem_addr[10] O
*I *2383:LO O *D sky130_fd_sc_hd__conb_1
*CAP
1 mem_addr[10] 0.000614296
2 *2383:LO 0.000614296
3 mem_addr[10] mem_addr[11] 0.000356723
4 mem_addr[10] mem_addr[12] 4.08232e-05
5 mem_addr[10] mem_addr[9] 0.000393614
6 mem_addr[10] *1742:A_N 9.90367e-05
7 mem_addr[10] *1742:B 0.000315152
8 mem_addr[10] *1792:A 0.000224341
9 mem_addr[10] *1792:B 9.90431e-05
10 mem_addr[10] *2163:A 0.000113546
11 mem_addr[10] *2260:A 0.000133
12 mem_addr[10] *691:36 0
13 mem_addr[10] *694:8 4.91303e-05
*RES
1 *2383:LO mem_addr[10] 30.2517 
*END

*D_NET *26 0.0025261
*CONN
*P mem_addr[11] O
*I *2384:LO O *D sky130_fd_sc_hd__conb_1
*CAP
1 mem_addr[11] 0.000544176
2 *2384:LO 0.000544176
3 mem_addr[11] mem_addr[12] 0.000321939
4 mem_addr[11] mem_addr[15] 0.000352372
5 mem_addr[11] *1636:A 0.000406714
6 mem_addr[11] *691:36 0
7 mem_addr[10] mem_addr[11] 0.000356723
*RES
1 *2384:LO mem_addr[11] 28.8569 
*END

*D_NET *27 0.00184884
*CONN
*P mem_addr[12] O
*I *2385:LO O *D sky130_fd_sc_hd__conb_1
*CAP
1 mem_addr[12] 0.000462302
2 *2385:LO 0.000462302
3 mem_addr[12] mem_addr[13] 0.000501705
4 mem_addr[12] mem_addr[8] 0
5 mem_addr[12] *691:36 5.97671e-05
6 mem_addr[10] mem_addr[12] 4.08232e-05
7 mem_addr[11] mem_addr[12] 0.000321939
*RES
1 *2385:LO mem_addr[12] 21.0763 
*END

*D_NET *28 0.00140878
*CONN
*P mem_addr[13] O
*I *2386:LO O *D sky130_fd_sc_hd__conb_1
*CAP
1 mem_addr[13] 0.000248015
2 *2386:LO 0.000248015
3 mem_addr[13] mem_addr[14] 0.00041105
4 mem_addr[12] mem_addr[13] 0.000501705
*RES
1 *2386:LO mem_addr[13] 18.8435 
*END

*D_NET *29 0.00110733
*CONN
*P mem_addr[14] O
*I *2387:LO O *D sky130_fd_sc_hd__conb_1
*CAP
1 mem_addr[14] 0.000214391
2 *2387:LO 0.000214391
3 mem_addr[14] mem_addr[15] 0.000267494
4 mem_addr[14] mem_addr[17] 0
5 mem_addr[14] *691:36 0
6 mem_addr[13] mem_addr[14] 0.00041105
*RES
1 *2387:LO mem_addr[14] 18.6273 
*END

*D_NET *30 0.00146109
*CONN
*P mem_addr[15] O
*I *2388:LO O *D sky130_fd_sc_hd__conb_1
*CAP
1 mem_addr[15] 0.000302062
2 *2388:LO 0.000302062
3 mem_addr[15] mem_addr[16] 0.000213048
4 mem_addr[15] mem_addr[17] 2.40537e-05
5 mem_addr[11] mem_addr[15] 0.000352372
6 mem_addr[14] mem_addr[15] 0.000267494
*RES
1 *2388:LO mem_addr[15] 22.9271 
*END

*D_NET *31 0.00154464
*CONN
*P mem_addr[16] O
*I *2389:LO O *D sky130_fd_sc_hd__conb_1
*CAP
1 mem_addr[16] 0.000535596
2 *2389:LO 0.000535596
3 mem_addr[16] mem_addr[17] 0.000209141
4 mem_addr[16] mem_addr[19] 5.12625e-05
5 mem_addr[16] *1636:A 0
6 mem_addr[15] mem_addr[16] 0.000213048
*RES
1 *2389:LO mem_addr[16] 25.4436 
*END

*D_NET *32 0.00131765
*CONN
*P mem_addr[17] O
*I *2390:LO O *D sky130_fd_sc_hd__conb_1
*CAP
1 mem_addr[17] 0.000306124
2 *2390:LO 0.000306124
3 mem_addr[17] mem_addr[18] 0.000407296
4 mem_addr[17] *1636:A 6.49154e-05
5 mem_addr[17] *691:36 0
6 mem_addr[14] mem_addr[17] 0
7 mem_addr[15] mem_addr[17] 2.40537e-05
8 mem_addr[16] mem_addr[17] 0.000209141
*RES
1 *2390:LO mem_addr[17] 19.2345 
*END

*D_NET *33 0.00145069
*CONN
*P mem_addr[18] O
*I *2391:LO O *D sky130_fd_sc_hd__conb_1
*CAP
1 mem_addr[18] 0.000319587
2 *2391:LO 0.000319587
3 mem_addr[18] mem_addr[19] 0.000372478
4 mem_addr[18] mem_addr[20] 2.25874e-05
5 mem_addr[18] *691:36 9.15186e-06
6 mem_addr[17] mem_addr[18] 0.000407296
*RES
1 *2391:LO mem_addr[18] 18.8435 
*END

*D_NET *34 0.00136044
*CONN
*P mem_addr[19] O
*I *2392:LO O *D sky130_fd_sc_hd__conb_1
*CAP
1 mem_addr[19] 0.000227287
2 *2392:LO 0.000227287
3 mem_addr[19] mem_addr[20] 0.000369251
4 mem_addr[19] *1636:A 0.000112869
5 mem_addr[16] mem_addr[19] 5.12625e-05
6 mem_addr[18] mem_addr[19] 0.000372478
*RES
1 *2392:LO mem_addr[19] 20.6439 
*END

*D_NET *35 0.00199786
*CONN
*P mem_addr[1] O
*I *2374:LO O *D sky130_fd_sc_hd__conb_1
*CAP
1 mem_addr[1] 0.000491904
2 *2374:LO 0.000491904
3 mem_addr[1] mem_addr[2] 0.000469409
4 mem_addr[1] mem_addr[5] 4.46431e-05
5 mem_addr[1] mem_addr[7] 0
6 mem_addr[1] *2259:A 2.42516e-05
7 mem_addr[1] *692:14 9.83388e-05
8 mem_addr[0] mem_addr[1] 0.000377408
*RES
1 *2374:LO mem_addr[1] 21.0591 
*END

*D_NET *36 0.00136636
*CONN
*P mem_addr[20] O
*I *2301:LO O *D sky130_fd_sc_hd__conb_1
*CAP
1 mem_addr[20] 0.000292789
2 *2301:LO 0.000292789
3 mem_addr[20] mem_addr[21] 0.000380812
4 mem_addr[20] *1935:A 8.13261e-06
5 mem_addr[18] mem_addr[20] 2.25874e-05
6 mem_addr[19] mem_addr[20] 0.000369251
*RES
1 *2301:LO mem_addr[20] 18.8435 
*END

*D_NET *37 0.00123079
*CONN
*P mem_addr[21] O
*I *2302:LO O *D sky130_fd_sc_hd__conb_1
*CAP
1 mem_addr[21] 0.00026026
2 *2302:LO 0.00026026
3 mem_addr[21] mem_addr[22] 0.000264943
4 mem_addr[21] mem_addr[24] 0
5 mem_addr[21] *1636:A 6.45145e-05
6 mem_addr[20] mem_addr[21] 0.000380812
*RES
1 *2302:LO mem_addr[21] 19.2345 
*END

*D_NET *38 0.00188015
*CONN
*P mem_addr[22] O
*I *2303:LO O *D sky130_fd_sc_hd__conb_1
*CAP
1 mem_addr[22] 0.000498252
2 *2303:LO 0.000498252
3 mem_addr[22] mem_addr[23] 0.000450027
4 mem_addr[22] mem_addr[24] 7.11566e-05
5 mem_addr[22] mem_addr[27] 9.75173e-05
6 mem_addr[22] *2178:A 0
7 mem_addr[21] mem_addr[22] 0.000264943
*RES
1 *2303:LO mem_addr[22] 25.3384 
*END

*D_NET *39 0.00132671
*CONN
*P mem_addr[23] O
*I *2304:LO O *D sky130_fd_sc_hd__conb_1
*CAP
1 mem_addr[23] 0.000393236
2 *2304:LO 0.000393236
3 mem_addr[23] mem_addr[24] 9.02127e-05
4 mem_addr[22] mem_addr[23] 0.000450027
*RES
1 *2304:LO mem_addr[23] 24.9589 
*END

*D_NET *40 0.00210436
*CONN
*P mem_addr[24] O
*I *2305:LO O *D sky130_fd_sc_hd__conb_1
*CAP
1 mem_addr[24] 0.000726477
2 *2305:LO 0.000726477
3 mem_addr[24] mem_addr[25] 0.000480435
4 mem_addr[24] *1641:B1 9.60337e-06
5 mem_addr[21] mem_addr[24] 0
6 mem_addr[22] mem_addr[24] 7.11566e-05
7 mem_addr[23] mem_addr[24] 9.02127e-05
*RES
1 *2305:LO mem_addr[24] 19.2759 
*END

*D_NET *41 0.00180601
*CONN
*P mem_addr[25] O
*I *2306:LO O *D sky130_fd_sc_hd__conb_1
*CAP
1 mem_addr[25] 0.000482155
2 *2306:LO 0.000482155
3 mem_addr[25] mem_addr[26] 0.000267494
4 mem_addr[25] mem_addr[27] 4.83911e-05
5 mem_addr[25] mem_addr[28] 0
6 mem_addr[25] *1935:A 4.53834e-05
7 mem_addr[25] *2178:A 0
8 mem_addr[24] mem_addr[25] 0.000480435
*RES
1 *2306:LO mem_addr[25] 20.6484 
*END

*D_NET *42 0.00154272
*CONN
*P mem_addr[26] O
*I *2307:LO O *D sky130_fd_sc_hd__conb_1
*CAP
1 mem_addr[26] 0.000505821
2 *2307:LO 0.000505821
3 mem_addr[26] mem_addr[27] 0.000263587
4 mem_addr[26] mem_addr[31] 0
5 mem_addr[25] mem_addr[26] 0.000267494
*RES
1 *2307:LO mem_addr[26] 25.0699 
*END

*D_NET *43 0.00164803
*CONN
*P mem_addr[27] O
*I *2308:LO O *D sky130_fd_sc_hd__conb_1
*CAP
1 mem_addr[27] 0.000375432
2 *2308:LO 0.000375432
3 mem_addr[27] mem_addr[28] 0.00036452
4 mem_addr[27] *1935:A 0
5 mem_addr[27] *2178:A 0.000123153
6 mem_addr[22] mem_addr[27] 9.75173e-05
7 mem_addr[25] mem_addr[27] 4.83911e-05
8 mem_addr[26] mem_addr[27] 0.000263587
*RES
1 *2308:LO mem_addr[27] 22.4653 
*END

*D_NET *44 0.0014552
*CONN
*P mem_addr[28] O
*I *2309:LO O *D sky130_fd_sc_hd__conb_1
*CAP
1 mem_addr[28] 0.000315783
2 *2309:LO 0.000315783
3 mem_addr[28] mem_addr[29] 0.000426197
4 mem_addr[28] mem_addr[30] 2.37627e-05
5 mem_addr[28] *1935:A 9.15186e-06
6 mem_addr[25] mem_addr[28] 0
7 mem_addr[27] mem_addr[28] 0.00036452
*RES
1 *2309:LO mem_addr[28] 18.8435 
*END

*D_NET *45 0.00121817
*CONN
*P mem_addr[29] O
*I *2310:LO O *D sky130_fd_sc_hd__conb_1
*CAP
1 mem_addr[29] 0.00018904
2 *2310:LO 0.00018904
3 mem_addr[29] mem_addr[30] 0.000413898
4 mem_addr[29] *1935:A 0
5 mem_addr[28] mem_addr[29] 0.000426197
*RES
1 *2310:LO mem_addr[29] 19.2345 
*END

*D_NET *46 0.00251004
*CONN
*P mem_addr[2] O
*I *2375:LO O *D sky130_fd_sc_hd__conb_1
*CAP
1 mem_addr[2] 0.000723219
2 *2375:LO 0.000723219
3 mem_addr[2] mem_addr[3] 0.000594198
4 mem_addr[1] mem_addr[2] 0.000469409
5 *13:8 mem_addr[2] 0
*RES
1 *2375:LO mem_addr[2] 21.3135 
*END

*D_NET *47 0.00139163
*CONN
*P mem_addr[30] O
*I *2311:LO O *D sky130_fd_sc_hd__conb_1
*CAP
1 mem_addr[30] 0.000289083
2 *2311:LO 0.000289083
3 mem_addr[30] mem_addr[31] 0.000318033
4 mem_addr[30] mem_wdata[0] 5.36404e-05
5 mem_addr[30] *1935:A 4.1331e-06
6 mem_addr[28] mem_addr[30] 2.37627e-05
7 mem_addr[29] mem_addr[30] 0.000413898
*RES
1 *2311:LO mem_addr[30] 18.8435 
*END

*D_NET *48 0.0012216
*CONN
*P mem_addr[31] O
*I *2312:LO O *D sky130_fd_sc_hd__conb_1
*CAP
1 mem_addr[31] 0.000292768
2 *2312:LO 0.000292768
3 mem_addr[31] mem_wdata[0] 0.000318033
4 mem_addr[26] mem_addr[31] 0
5 mem_addr[30] mem_addr[31] 0.000318033
*RES
1 *2312:LO mem_addr[31] 21.3212 
*END

*D_NET *49 0.00280567
*CONN
*P mem_addr[3] O
*I *2376:LO O *D sky130_fd_sc_hd__conb_1
*CAP
1 mem_addr[3] 0.000653061
2 *2376:LO 0.000653061
3 mem_addr[3] mem_addr[4] 0.000807112
4 mem_addr[3] *2259:A 4.16413e-05
5 mem_addr[3] *692:14 5.65955e-05
6 mem_addr[2] mem_addr[3] 0.000594198
*RES
1 *2376:LO mem_addr[3] 21.9777 
*END

*D_NET *50 0.00212777
*CONN
*P mem_addr[4] O
*I *2377:LO O *D sky130_fd_sc_hd__conb_1
*CAP
1 mem_addr[4] 0.000390794
2 *2377:LO 0.000390794
3 mem_addr[4] mem_addr[5] 0.000501224
4 mem_addr[4] mem_addr[6] 1.67017e-05
5 mem_addr[4] *2259:A 2.11419e-05
6 mem_addr[3] mem_addr[4] 0.000807112
*RES
1 *2377:LO mem_addr[4] 19.2759 
*END

*D_NET *51 0.00278724
*CONN
*P mem_addr[5] O
*I *2378:LO O *D sky130_fd_sc_hd__conb_1
*CAP
1 mem_addr[5] 0.000638813
2 *2378:LO 0.000638813
3 mem_addr[5] mem_addr[6] 0.000528557
4 mem_addr[5] mem_addr[7] 0
5 mem_addr[5] mem_addr[9] 0
6 mem_addr[5] *2163:A 0
7 mem_addr[5] *2168:A 0.000435189
8 mem_addr[1] mem_addr[5] 4.46431e-05
9 mem_addr[4] mem_addr[5] 0.000501224
*RES
1 *2378:LO mem_addr[5] 25.774 
*END

*D_NET *52 0.00220633
*CONN
*P mem_addr[6] O
*I *2379:LO O *D sky130_fd_sc_hd__conb_1
*CAP
1 mem_addr[6] 0.000634342
2 *2379:LO 0.000634342
3 mem_addr[6] mem_addr[7] 0.000372478
4 mem_addr[6] mem_addr[8] 1.99065e-05
5 mem_addr[6] *1792:B 0
6 mem_addr[4] mem_addr[6] 1.67017e-05
7 mem_addr[5] mem_addr[6] 0.000528557
*RES
1 *2379:LO mem_addr[6] 19.4921 
*END

*D_NET *53 0.00282457
*CONN
*P mem_addr[7] O
*I *2380:LO O *D sky130_fd_sc_hd__conb_1
*CAP
1 mem_addr[7] 0.000745938
2 *2380:LO 0.000745938
3 mem_addr[7] mem_addr[8] 0.000369251
4 mem_addr[7] mem_addr[9] 0.000483979
5 mem_addr[0] mem_addr[7] 0.000106985
6 mem_addr[1] mem_addr[7] 0
7 mem_addr[5] mem_addr[7] 0
8 mem_addr[6] mem_addr[7] 0.000372478
*RES
1 *2380:LO mem_addr[7] 30.9653 
*END

*D_NET *54 0.0032682
*CONN
*P mem_addr[8] O
*I *2381:LO O *D sky130_fd_sc_hd__conb_1
*CAP
1 mem_addr[8] 0.000986268
2 *2381:LO 0.000986268
3 mem_addr[8] mem_addr[9] 0.000399701
4 mem_addr[8] *1635:A 2.27416e-05
5 mem_addr[8] *1636:C 2.84026e-05
6 mem_addr[8] *1717:B 5.30154e-05
7 mem_addr[8] *1718:A1 5.52238e-05
8 mem_addr[8] *2163:A 3.82047e-05
9 mem_addr[8] *2196:A 7.02611e-05
10 mem_addr[8] *2226:A 2.23592e-05
11 mem_addr[8] *691:36 1.50563e-05
12 mem_addr[8] *720:12 4.72217e-05
13 mem_addr[8] *720:14 0.00015432
14 mem_addr[12] mem_addr[8] 0
15 mem_addr[6] mem_addr[8] 1.99065e-05
16 mem_addr[7] mem_addr[8] 0.000369251
*RES
1 *2381:LO mem_addr[8] 29.6649 
*END

*D_NET *55 0.00269606
*CONN
*P mem_addr[9] O
*I *2382:LO O *D sky130_fd_sc_hd__conb_1
*CAP
1 mem_addr[9] 0.000456447
2 *2382:LO 0.000456447
3 mem_addr[9] *2163:A 0.000505868
4 mem_addr[10] mem_addr[9] 0.000393614
5 mem_addr[5] mem_addr[9] 0
6 mem_addr[7] mem_addr[9] 0.000483979
7 mem_addr[8] mem_addr[9] 0.000399701
*RES
1 *2382:LO mem_addr[9] 27.591 
*END

*D_NET *56 0.00199987
*CONN
*P mem_read O
*I *2313:LO O *D sky130_fd_sc_hd__conb_1
*CAP
1 mem_read 0.000766735
2 *2313:LO 0.000766735
3 mem_read mem_wdata[31] 0.000185353
4 mem_read mem_write 0.000281044
*RES
1 *2313:LO mem_read 27.4819 
*END

*D_NET *57 0.00175745
*CONN
*P mem_wdata[0] O
*I *2314:LO O *D sky130_fd_sc_hd__conb_1
*CAP
1 mem_wdata[0] 0.000432977
2 *2314:LO 0.000432977
3 mem_wdata[0] mem_wdata[1] 0.000511167
4 mem_wdata[0] mem_wdata[2] 8.65987e-06
5 mem_addr[30] mem_wdata[0] 5.36404e-05
6 mem_addr[31] mem_wdata[0] 0.000318033
*RES
1 *2314:LO mem_wdata[0] 21.0763 
*END

*D_NET *58 0.00132417
*CONN
*P mem_wdata[10] O
*I *2324:LO O *D sky130_fd_sc_hd__conb_1
*CAP
1 mem_wdata[10] 0.000304072
2 *2324:LO 0.000304072
3 mem_wdata[10] mem_wdata[11] 0.00024047
4 mem_wdata[10] mem_wdata[12] 6.16556e-05
5 mem_wdata[10] mem_wdata[9] 0.000413898
*RES
1 *2324:LO mem_wdata[10] 20.4487 
*END

*D_NET *59 0.00127249
*CONN
*P mem_wdata[11] O
*I *2325:LO O *D sky130_fd_sc_hd__conb_1
*CAP
1 mem_wdata[11] 0.000397485
2 *2325:LO 0.000397485
3 mem_wdata[11] mem_wdata[12] 0.000237049
4 mem_wdata[10] mem_wdata[11] 0.00024047
*RES
1 *2325:LO mem_wdata[11] 22.9271 
*END

*D_NET *60 0.0013363
*CONN
*P mem_wdata[12] O
*I *2326:LO O *D sky130_fd_sc_hd__conb_1
*CAP
1 mem_wdata[12] 0.0003272
2 *2326:LO 0.0003272
3 mem_wdata[12] mem_wdata[13] 0.000383198
4 mem_wdata[10] mem_wdata[12] 6.16556e-05
5 mem_wdata[11] mem_wdata[12] 0.000237049
*RES
1 *2326:LO mem_wdata[12] 19.8416 
*END

*D_NET *61 0.00139435
*CONN
*P mem_wdata[13] O
*I *2327:LO O *D sky130_fd_sc_hd__conb_1
*CAP
1 mem_wdata[13] 0.00031828
2 *2327:LO 0.00031828
3 mem_wdata[13] mem_wdata[14] 0.000374588
4 mem_wdata[12] mem_wdata[13] 0.000383198
*RES
1 *2327:LO mem_wdata[13] 18.8435 
*END

*D_NET *62 0.0014017
*CONN
*P mem_wdata[14] O
*I *2328:LO O *D sky130_fd_sc_hd__conb_1
*CAP
1 mem_wdata[14] 0.00039332
2 *2328:LO 0.00039332
3 mem_wdata[14] mem_wdata[15] 0.00024047
4 mem_wdata[14] *2073:RESET_B 0
5 mem_wdata[13] mem_wdata[14] 0.000374588
*RES
1 *2328:LO mem_wdata[14] 21.0559 
*END

*D_NET *63 0.00126957
*CONN
*P mem_wdata[15] O
*I *2329:LO O *D sky130_fd_sc_hd__conb_1
*CAP
1 mem_wdata[15] 0.000394415
2 *2329:LO 0.000394415
3 mem_wdata[15] mem_wdata[16] 0.000240271
4 mem_wdata[15] mem_wdata[19] 0
5 mem_wdata[14] mem_wdata[15] 0.00024047
*RES
1 *2329:LO mem_wdata[15] 22.9271 
*END

*D_NET *64 0.00159103
*CONN
*P mem_wdata[16] O
*I *2330:LO O *D sky130_fd_sc_hd__conb_1
*CAP
1 mem_wdata[16] 0.0003872
2 *2330:LO 0.0003872
3 mem_wdata[16] mem_wdata[17] 0.00057636
4 mem_wdata[16] mem_wdata[19] 0
5 mem_wdata[15] mem_wdata[16] 0.000240271
*RES
1 *2330:LO mem_wdata[16] 25.3729 
*END

*D_NET *65 0.00171672
*CONN
*P mem_wdata[17] O
*I *2331:LO O *D sky130_fd_sc_hd__conb_1
*CAP
1 mem_wdata[17] 0.000402308
2 *2331:LO 0.000402308
3 mem_wdata[17] mem_wdata[18] 0.000322137
4 mem_wdata[17] mem_wdata[19] 1.36077e-05
5 mem_wdata[16] mem_wdata[17] 0.00057636
*RES
1 *2331:LO mem_wdata[17] 26.7102 
*END

*D_NET *66 0.00231329
*CONN
*P mem_wdata[18] O
*I *2332:LO O *D sky130_fd_sc_hd__conb_1
*CAP
1 mem_wdata[18] 0.000719651
2 *2332:LO 0.000719651
3 mem_wdata[18] mem_wdata[19] 0.000127473
4 mem_wdata[18] mem_wdata[20] 0.000272371
5 mem_wdata[18] mem_wdata[23] 3.63515e-05
6 mem_wdata[18] mem_wdata[24] 0.000115656
7 mem_wdata[17] mem_wdata[18] 0.000322137
*RES
1 *2332:LO mem_wdata[18] 30.9774 
*END

*D_NET *67 0.0017516
*CONN
*P mem_wdata[19] O
*I *2333:LO O *D sky130_fd_sc_hd__conb_1
*CAP
1 mem_wdata[19] 0.000600785
2 *2333:LO 0.000600785
3 mem_wdata[19] mem_wdata[20] 0.000256284
4 mem_wdata[19] mem_wdata[21] 0.000129972
5 mem_wdata[19] *2207:A 2.26973e-05
6 mem_wdata[15] mem_wdata[19] 0
7 mem_wdata[16] mem_wdata[19] 0
8 mem_wdata[17] mem_wdata[19] 1.36077e-05
9 mem_wdata[18] mem_wdata[19] 0.000127473
*RES
1 *2333:LO mem_wdata[19] 19.2603 
*END

*D_NET *68 0.00140929
*CONN
*P mem_wdata[1] O
*I *2315:LO O *D sky130_fd_sc_hd__conb_1
*CAP
1 mem_wdata[1] 0.000213087
2 *2315:LO 0.000213087
3 mem_wdata[1] mem_wdata[2] 0.00047195
4 mem_wdata[0] mem_wdata[1] 0.000511167
*RES
1 *2315:LO mem_wdata[1] 18.8435 
*END

*D_NET *69 0.00216997
*CONN
*P mem_wdata[20] O
*I *2334:LO O *D sky130_fd_sc_hd__conb_1
*CAP
1 mem_wdata[20] 0.000627208
2 *2334:LO 0.000627208
3 mem_wdata[20] mem_wdata[21] 0.000258021
4 mem_wdata[20] mem_wdata[22] 0
5 mem_wdata[20] mem_wdata[23] 0.000128876
6 mem_wdata[18] mem_wdata[20] 0.000272371
7 mem_wdata[19] mem_wdata[20] 0.000256284
*RES
1 *2334:LO mem_wdata[20] 28.3913 
*END

*D_NET *70 0.00126585
*CONN
*P mem_wdata[21] O
*I *2335:LO O *D sky130_fd_sc_hd__conb_1
*CAP
1 mem_wdata[21] 0.000235955
2 *2335:LO 0.000235955
3 mem_wdata[21] mem_wdata[22] 0.000405946
4 mem_wdata[21] *2071:RESET_B 0
5 mem_wdata[19] mem_wdata[21] 0.000129972
6 mem_wdata[20] mem_wdata[21] 0.000258021
*RES
1 *2335:LO mem_wdata[21] 18.7715 
*END

*D_NET *71 0.0018651
*CONN
*P mem_wdata[22] O
*I *2336:LO O *D sky130_fd_sc_hd__conb_1
*CAP
1 mem_wdata[22] 0.000625421
2 *2336:LO 0.000625421
3 mem_wdata[22] mem_wdata[23] 0.000208317
4 mem_wdata[22] mem_wdata[25] 0
5 mem_wdata[22] mem_wdata[26] 0
6 mem_wdata[22] *2071:RESET_B 0
7 mem_wdata[20] mem_wdata[22] 0
8 mem_wdata[21] mem_wdata[22] 0.000405946
*RES
1 *2336:LO mem_wdata[22] 25.3059 
*END

*D_NET *72 0.00186041
*CONN
*P mem_wdata[23] O
*I *2337:LO O *D sky130_fd_sc_hd__conb_1
*CAP
1 mem_wdata[23] 0.000538512
2 *2337:LO 0.000538512
3 mem_wdata[23] mem_wdata[24] 0.000382628
4 mem_wdata[23] mem_wdata[25] 2.72155e-05
5 mem_wdata[18] mem_wdata[23] 3.63515e-05
6 mem_wdata[20] mem_wdata[23] 0.000128876
7 mem_wdata[22] mem_wdata[23] 0.000208317
*RES
1 *2337:LO mem_wdata[23] 28.4615 
*END

*D_NET *73 0.00184588
*CONN
*P mem_wdata[24] O
*I *2338:LO O *D sky130_fd_sc_hd__conb_1
*CAP
1 mem_wdata[24] 0.000540419
2 *2338:LO 0.000540419
3 mem_wdata[24] mem_wdata[25] 0.000153871
4 mem_wdata[24] mem_wdata[27] 0.000112886
5 mem_wdata[18] mem_wdata[24] 0.000115656
6 mem_wdata[23] mem_wdata[24] 0.000382628
*RES
1 *2338:LO mem_wdata[24] 28.2102 
*END

*D_NET *74 0.00176744
*CONN
*P mem_wdata[25] O
*I *2339:LO O *D sky130_fd_sc_hd__conb_1
*CAP
1 mem_wdata[25] 0.000536491
2 *2339:LO 0.000536491
3 mem_wdata[25] mem_wdata[26] 0.000513374
4 mem_wdata[22] mem_wdata[25] 0
5 mem_wdata[23] mem_wdata[25] 2.72155e-05
6 mem_wdata[24] mem_wdata[25] 0.000153871
*RES
1 *2339:LO mem_wdata[25] 19.0597 
*END

*D_NET *75 0.00183537
*CONN
*P mem_wdata[26] O
*I *2340:LO O *D sky130_fd_sc_hd__conb_1
*CAP
1 mem_wdata[26] 0.000532505
2 *2340:LO 0.000532505
3 mem_wdata[26] mem_wdata[27] 0.000104157
4 mem_wdata[26] mem_wdata[28] 0.00015283
5 mem_wdata[22] mem_wdata[26] 0
6 mem_wdata[25] mem_wdata[26] 0.000513374
*RES
1 *2340:LO mem_wdata[26] 20.8811 
*END

*D_NET *76 0.00168254
*CONN
*P mem_wdata[27] O
*I *2341:LO O *D sky130_fd_sc_hd__conb_1
*CAP
1 mem_wdata[27] 0.000545349
2 *2341:LO 0.000545349
3 mem_wdata[27] mem_wdata[28] 0.000104157
4 mem_wdata[27] mem_wdata[30] 0.000270646
5 mem_wdata[27] mem_wdata[31] 0
6 mem_wdata[24] mem_wdata[27] 0.000112886
7 mem_wdata[26] mem_wdata[27] 0.000104157
*RES
1 *2341:LO mem_wdata[27] 28.2804 
*END

*D_NET *77 0.00152725
*CONN
*P mem_wdata[28] O
*I *2342:LO O *D sky130_fd_sc_hd__conb_1
*CAP
1 mem_wdata[28] 0.000425557
2 *2342:LO 0.000425557
3 mem_wdata[28] mem_wdata[29] 0.000419153
4 mem_wdata[26] mem_wdata[28] 0.00015283
5 mem_wdata[27] mem_wdata[28] 0.000104157
*RES
1 *2342:LO mem_wdata[28] 20.0578 
*END

*D_NET *78 0.00179762
*CONN
*P mem_wdata[29] O
*I *2343:LO O *D sky130_fd_sc_hd__conb_1
*CAP
1 mem_wdata[29] 0.000543311
2 *2343:LO 0.000543311
3 mem_wdata[29] mem_wdata[30] 0.000258031
4 mem_wdata[29] mem_wdata[31] 0
5 mem_wdata[29] mem_write 3.38089e-05
6 mem_wdata[28] mem_wdata[29] 0.000419153
*RES
1 *2343:LO mem_wdata[29] 23.4845 
*END

*D_NET *79 0.00178252
*CONN
*P mem_wdata[2] O
*I *2316:LO O *D sky130_fd_sc_hd__conb_1
*CAP
1 mem_wdata[2] 0.000451374
2 *2316:LO 0.000451374
3 mem_wdata[2] mem_wdata[3] 0.000399161
4 mem_wdata[0] mem_wdata[2] 8.65987e-06
5 mem_wdata[1] mem_wdata[2] 0.00047195
*RES
1 *2316:LO mem_wdata[2] 19.2759 
*END

*D_NET *80 0.00159541
*CONN
*P mem_wdata[30] O
*I *2344:LO O *D sky130_fd_sc_hd__conb_1
*CAP
1 mem_wdata[30] 0.000406141
2 *2344:LO 0.000406141
3 mem_wdata[30] mem_wdata[31] 0.000233383
4 mem_wdata[30] mem_write 2.10638e-05
5 mem_wdata[27] mem_wdata[30] 0.000270646
6 mem_wdata[29] mem_wdata[30] 0.000258031
*RES
1 *2344:LO mem_wdata[30] 24.1413 
*END

*D_NET *81 0.00174378
*CONN
*P mem_wdata[31] O
*I *2345:LO O *D sky130_fd_sc_hd__conb_1
*CAP
1 mem_wdata[31] 0.000568852
2 *2345:LO 0.000568852
3 mem_wdata[31] mem_write 0.000187339
4 mem_read mem_wdata[31] 0.000185353
5 mem_wdata[27] mem_wdata[31] 0
6 mem_wdata[29] mem_wdata[31] 0
7 mem_wdata[30] mem_wdata[31] 0.000233383
*RES
1 *2345:LO mem_wdata[31] 27.5329 
*END

*D_NET *82 0.00181068
*CONN
*P mem_wdata[3] O
*I *2317:LO O *D sky130_fd_sc_hd__conb_1
*CAP
1 mem_wdata[3] 0.000386647
2 *2317:LO 0.000386647
3 mem_wdata[3] mem_wdata[4] 0.000632467
4 mem_wdata[3] mem_wdata[6] 5.75583e-06
5 mem_wdata[2] mem_wdata[3] 0.000399161
*RES
1 *2317:LO mem_wdata[3] 19.2603 
*END

*D_NET *83 0.00173524
*CONN
*P mem_wdata[4] O
*I *2318:LO O *D sky130_fd_sc_hd__conb_1
*CAP
1 mem_wdata[4] 0.000233834
2 *2318:LO 0.000233834
3 mem_wdata[4] mem_wdata[5] 0.000472079
4 mem_wdata[4] mem_wdata[6] 0.000141866
5 mem_wdata[4] mem_wdata[7] 2.11565e-05
6 mem_wdata[3] mem_wdata[4] 0.000632467
*RES
1 *2318:LO mem_wdata[4] 20.5929 
*END

*D_NET *84 0.00165474
*CONN
*P mem_wdata[5] O
*I *2319:LO O *D sky130_fd_sc_hd__conb_1
*CAP
1 mem_wdata[5] 0.000353615
2 *2319:LO 0.000353615
3 mem_wdata[5] mem_wdata[6] 0.000412027
4 mem_wdata[5] mem_wdata[7] 6.34053e-05
5 mem_wdata[4] mem_wdata[5] 0.000472079
*RES
1 *2319:LO mem_wdata[5] 22.2702 
*END

*D_NET *85 0.0016759
*CONN
*P mem_wdata[6] O
*I *2320:LO O *D sky130_fd_sc_hd__conb_1
*CAP
1 mem_wdata[6] 0.000353845
2 *2320:LO 0.000353845
3 mem_wdata[6] mem_wdata[7] 0.000399701
4 mem_wdata[6] mem_wdata[8] 8.86373e-06
5 mem_wdata[3] mem_wdata[6] 5.75583e-06
6 mem_wdata[4] mem_wdata[6] 0.000141866
7 mem_wdata[5] mem_wdata[6] 0.000412027
*RES
1 *2320:LO mem_wdata[6] 20.6649 
*END

*D_NET *86 0.00158177
*CONN
*P mem_wdata[7] O
*I *2321:LO O *D sky130_fd_sc_hd__conb_1
*CAP
1 mem_wdata[7] 0.000351945
2 *2321:LO 0.000351945
3 mem_wdata[7] mem_wdata[8] 0.000393614
4 mem_wdata[7] *2081:RESET_B 0
5 mem_wdata[4] mem_wdata[7] 2.11565e-05
6 mem_wdata[5] mem_wdata[7] 6.34053e-05
7 mem_wdata[6] mem_wdata[7] 0.000399701
*RES
1 *2321:LO mem_wdata[7] 22.1267 
*END

*D_NET *87 0.00129524
*CONN
*P mem_wdata[8] O
*I *2322:LO O *D sky130_fd_sc_hd__conb_1
*CAP
1 mem_wdata[8] 0.000232064
2 *2322:LO 0.000232064
3 mem_wdata[8] mem_wdata[9] 0.000428636
4 mem_wdata[6] mem_wdata[8] 8.86373e-06
5 mem_wdata[7] mem_wdata[8] 0.000393614
*RES
1 *2322:LO mem_wdata[8] 19.8416 
*END

*D_NET *88 0.0013737
*CONN
*P mem_wdata[9] O
*I *2323:LO O *D sky130_fd_sc_hd__conb_1
*CAP
1 mem_wdata[9] 0.000265583
2 *2323:LO 0.000265583
3 mem_wdata[10] mem_wdata[9] 0.000413898
4 mem_wdata[8] mem_wdata[9] 0.000428636
*RES
1 *2323:LO mem_wdata[9] 18.8435 
*END

*D_NET *89 0.0016034
*CONN
*P mem_write O
*I *2346:LO O *D sky130_fd_sc_hd__conb_1
*CAP
1 mem_write 0.000540072
2 *2346:LO 0.000540072
3 mem_read mem_write 0.000281044
4 mem_wdata[29] mem_write 3.38089e-05
5 mem_wdata[30] mem_write 2.10638e-05
6 mem_wdata[31] mem_write 0.000187339
*RES
1 *2346:LO mem_write 20.0578 
*END

*D_NET *90 0.00165769
*CONN
*P pcRegister[0] O
*I *2347:LO O *D sky130_fd_sc_hd__conb_1
*CAP
1 pcRegister[0] 0.000651498
2 *2347:LO 0.000651498
3 pcRegister[0] pcRegister[1] 0.000132807
4 pcRegister[0] pcRegister[6] 0.000165291
5 pcRegister[0] *2290:A 5.65955e-05
*RES
1 *2347:LO pcRegister[0] 23.2755 
*END

*D_NET *91 0.00169241
*CONN
*P pcRegister[10] O
*I *2295:X O *D sky130_fd_sc_hd__clkdlybuf4s25_1
*CAP
1 pcRegister[10] 0.000594573
2 *2295:X 0.000594573
3 pcRegister[10] pcRegister[11] 0.000178639
4 pcRegister[10] pcRegister[9] 0.000182989
5 pcRegister[10] *2299:A 0.000141639
6 pcRegister[10] *543:22 0
*RES
1 *2295:X pcRegister[10] 24.6868 
*END

*D_NET *92 0.00278977
*CONN
*P pcRegister[11] O
*I *2296:X O *D sky130_fd_sc_hd__clkdlybuf4s25_1
*CAP
1 pcRegister[11] 0.000841935
2 *2296:X 0.000841935
3 pcRegister[11] pcRegister[12] 0.000133901
4 pcRegister[11] pcRegister[14] 4.40661e-05
5 pcRegister[11] pcRegister[6] 0.000115485
6 pcRegister[11] pcRegister[7] 0.000308077
7 pcRegister[11] pcRegister[8] 5.58875e-06
8 pcRegister[11] pcRegister[9] 0.000281605
9 pcRegister[11] *1867:B 3.85374e-05
10 pcRegister[11] *543:22 0
11 pcRegister[10] pcRegister[11] 0.000178639
*RES
1 *2296:X pcRegister[11] 32.7398 
*END

*D_NET *93 0.00207055
*CONN
*P pcRegister[12] O
*I *2297:X O *D sky130_fd_sc_hd__clkdlybuf4s25_1
*CAP
1 pcRegister[12] 0.000872228
2 *2297:X 0.000872228
3 pcRegister[12] pcRegister[13] 0.000186407
4 pcRegister[12] pcRegister[14] 0
5 pcRegister[12] *679:112 5.7903e-06
6 pcRegister[11] pcRegister[12] 0.000133901
*RES
1 *2297:X pcRegister[12] 19.9339 
*END

*D_NET *94 0.000952534
*CONN
*P pcRegister[13] O
*I *2298:X O *D sky130_fd_sc_hd__clkdlybuf4s25_1
*CAP
1 pcRegister[13] 0.000258934
2 *2298:X 0.000258934
3 pcRegister[13] pcRegister[14] 0.000248259
4 pcRegister[12] pcRegister[13] 0.000186407
*RES
1 *2298:X pcRegister[13] 19.6511 
*END

*D_NET *95 0.00183109
*CONN
*P pcRegister[14] O
*I *2299:X O *D sky130_fd_sc_hd__clkdlybuf4s25_1
*CAP
1 pcRegister[14] 0.000701746
2 *2299:X 0.000701746
3 pcRegister[14] pcRegister[15] 0.000135274
4 pcRegister[14] pcRegister[16] 0
5 pcRegister[14] *543:37 0
6 pcRegister[11] pcRegister[14] 4.40661e-05
7 pcRegister[12] pcRegister[14] 0
8 pcRegister[13] pcRegister[14] 0.000248259
*RES
1 *2299:X pcRegister[14] 26.7767 
*END

*D_NET *96 0.0012102
*CONN
*P pcRegister[15] O
*I *2267:X O *D sky130_fd_sc_hd__clkdlybuf4s25_1
*CAP
1 pcRegister[15] 0.000469824
2 *2267:X 0.000469824
3 pcRegister[15] pcRegister[16] 0.000135274
4 pcRegister[15] *1874:A 0
5 pcRegister[15] *543:37 0
6 pcRegister[14] pcRegister[15] 0.000135274
*RES
1 *2267:X pcRegister[15] 23.4343 
*END

*D_NET *97 0.00144441
*CONN
*P pcRegister[16] O
*I *2268:X O *D sky130_fd_sc_hd__clkdlybuf4s25_1
*CAP
1 pcRegister[16] 0.000570097
2 *2268:X 0.000570097
3 pcRegister[16] pcRegister[17] 0.000168943
4 pcRegister[14] pcRegister[16] 0
5 pcRegister[15] pcRegister[16] 0.000135274
*RES
1 *2268:X pcRegister[16] 23.007 
*END

*D_NET *98 0.000921322
*CONN
*P pcRegister[17] O
*I *2269:X O *D sky130_fd_sc_hd__clkdlybuf4s25_1
*CAP
1 pcRegister[17] 0.000284052
2 *2269:X 0.000284052
3 pcRegister[17] pcRegister[18] 0.000184276
4 pcRegister[17] *2269:A 0
5 pcRegister[16] pcRegister[17] 0.000168943
*RES
1 *2269:X pcRegister[17] 19.6511 
*END

*D_NET *99 0.000910594
*CONN
*P pcRegister[18] O
*I *2270:X O *D sky130_fd_sc_hd__clkdlybuf4s25_1
*CAP
1 pcRegister[18] 0.000321153
2 *2270:X 0.000321153
3 pcRegister[18] pcRegister[19] 8.4013e-05
4 pcRegister[18] pcRegister[20] 0
5 pcRegister[17] pcRegister[18] 0.000184276
*RES
1 *2270:X pcRegister[18] 19.6511 
*END

*D_NET *100 0.00110277
*CONN
*P pcRegister[19] O
*I *2271:X O *D sky130_fd_sc_hd__clkdlybuf4s25_1
*CAP
1 pcRegister[19] 0.00046737
2 *2271:X 0.00046737
3 pcRegister[19] pcRegister[20] 8.4013e-05
4 pcRegister[18] pcRegister[19] 8.4013e-05
*RES
1 *2271:X pcRegister[19] 24.1817 
*END

*D_NET *101 0.00167158
*CONN
*P pcRegister[1] O
*I *2348:LO O *D sky130_fd_sc_hd__conb_1
*CAP
1 pcRegister[1] 0.000451168
2 *2348:LO 0.000451168
3 pcRegister[1] pcRegister[2] 0.000149145
4 pcRegister[1] pcRegister[4] 0
5 pcRegister[1] pcRegister[5] 1.14933e-05
6 pcRegister[1] pcRegister[6] 3.72054e-05
7 pcRegister[1] pcRegister[7] 0.00031247
8 pcRegister[1] *1854:B 0.000126122
9 pcRegister[0] pcRegister[1] 0.000132807
*RES
1 *2348:LO pcRegister[1] 24.0446 
*END

*D_NET *102 0.00145712
*CONN
*P pcRegister[20] O
*I *2272:X O *D sky130_fd_sc_hd__clkdlybuf4s25_1
*CAP
1 pcRegister[20] 0.000653355
2 *2272:X 0.000653355
3 pcRegister[20] pcRegister[21] 5.67975e-05
4 pcRegister[20] pcRegister[22] 9.60337e-06
5 pcRegister[20] *2272:A 0
6 pcRegister[20] *2273:A 0
7 pcRegister[20] *564:57 0
8 pcRegister[18] pcRegister[20] 0
9 pcRegister[19] pcRegister[20] 8.4013e-05
*RES
1 *2272:X pcRegister[20] 23.4375 
*END

*D_NET *103 0.00163019
*CONN
*P pcRegister[21] O
*I *2273:X O *D sky130_fd_sc_hd__clkdlybuf4s25_1
*CAP
1 pcRegister[21] 0.000766003
2 *2273:X 0.000766003
3 pcRegister[21] pcRegister[22] 4.13858e-05
4 pcRegister[20] pcRegister[21] 5.67975e-05
*RES
1 *2273:X pcRegister[21] 29.7162 
*END

*D_NET *104 0.00175877
*CONN
*P pcRegister[22] O
*I *2274:X O *D sky130_fd_sc_hd__clkdlybuf4s25_1
*CAP
1 pcRegister[22] 0.00065485
2 *2274:X 0.00065485
3 pcRegister[22] pcRegister[23] 0.000157455
4 pcRegister[22] *1910:A 5.65955e-05
5 pcRegister[22] *2039:D 7.49104e-05
6 pcRegister[22] *2273:A 0.000109117
7 pcRegister[20] pcRegister[22] 9.60337e-06
8 pcRegister[21] pcRegister[22] 4.13858e-05
*RES
1 *2274:X pcRegister[22] 23.7423 
*END

*D_NET *105 0.00171684
*CONN
*P pcRegister[23] O
*I *2275:X O *D sky130_fd_sc_hd__clkdlybuf4s25_1
*CAP
1 pcRegister[23] 0.000587356
2 *2275:X 0.000587356
3 pcRegister[23] pcRegister[24] 0.000107399
4 pcRegister[23] pcRegister[26] 9.60337e-06
5 pcRegister[23] *1910:B 1.34809e-05
6 pcRegister[23] *1910:C 0.000254189
7 pcRegister[23] *2273:A 0
8 pcRegister[22] pcRegister[23] 0.000157455
*RES
1 *2275:X pcRegister[23] 25.866 
*END

*D_NET *106 0.00216678
*CONN
*P pcRegister[24] O
*I *2276:X O *D sky130_fd_sc_hd__clkdlybuf4s25_1
*CAP
1 pcRegister[24] 0.00100288
2 *2276:X 0.00100288
3 pcRegister[24] pcRegister[25] 5.36274e-05
4 pcRegister[24] pcRegister[26] 0
5 pcRegister[24] pcRegister[28] 0
6 pcRegister[24] *1607:A 0
7 pcRegister[23] pcRegister[24] 0.000107399
*RES
1 *2276:X pcRegister[24] 33.2187 
*END

*D_NET *107 0.00213722
*CONN
*P pcRegister[25] O
*I *2278:X O *D sky130_fd_sc_hd__clkdlybuf4s25_1
*CAP
1 pcRegister[25] 0.00101498
2 *2278:X 0.00101498
3 pcRegister[25] pcRegister[26] 5.36274e-05
4 pcRegister[24] pcRegister[25] 5.36274e-05
*RES
1 *2278:X pcRegister[25] 34.5733 
*END

*D_NET *108 0.00128226
*CONN
*P pcRegister[26] O
*I *2279:X O *D sky130_fd_sc_hd__clkdlybuf4s25_1
*CAP
1 pcRegister[26] 0.000398914
2 *2279:X 0.000398914
3 pcRegister[26] pcRegister[27] 0.000209572
4 pcRegister[26] *1910:B 0.000211631
5 pcRegister[23] pcRegister[26] 9.60337e-06
6 pcRegister[24] pcRegister[26] 0
7 pcRegister[25] pcRegister[26] 5.36274e-05
*RES
1 *2279:X pcRegister[26] 21.153 
*END

*D_NET *109 0.00304816
*CONN
*P pcRegister[27] O
*I *2280:X O *D sky130_fd_sc_hd__clkdlybuf4s25_1
*CAP
1 pcRegister[27] 0.000982832
2 *2280:X 0.000982832
3 pcRegister[27] pcRegister[28] 0.000209788
4 pcRegister[27] pcRegister[29] 9.60337e-06
5 pcRegister[27] *2043:D 0
6 pcRegister[27] *2278:A 0.00032098
7 pcRegister[27] *323:18 0.000265721
8 pcRegister[27] *614:25 6.68305e-05
9 pcRegister[26] pcRegister[27] 0.000209572
*RES
1 *2280:X pcRegister[27] 26.7474 
*END

*D_NET *110 0.00267923
*CONN
*P pcRegister[28] O
*I *2281:X O *D sky130_fd_sc_hd__clkdlybuf4s25_1
*CAP
1 pcRegister[28] 0.000701973
2 *2281:X 0.000701973
3 pcRegister[28] pcRegister[29] 0.000209788
4 pcRegister[28] pcRegister[30] 0.000287587
5 pcRegister[28] *1607:A 0.000164131
6 pcRegister[28] *2043:D 0.000125928
7 pcRegister[28] *2278:A 9.93955e-05
8 pcRegister[28] *2284:A 7.86956e-05
9 pcRegister[28] *323:18 9.9974e-05
10 pcRegister[24] pcRegister[28] 0
11 pcRegister[27] pcRegister[28] 0.000209788
*RES
1 *2281:X pcRegister[28] 29.7602 
*END

*D_NET *111 0.0015601
*CONN
*P pcRegister[29] O
*I *2282:X O *D sky130_fd_sc_hd__clkdlybuf4s25_1
*CAP
1 pcRegister[29] 0.000571094
2 *2282:X 0.000571094
3 pcRegister[29] pcRegister[30] 0.000198516
4 pcRegister[29] pcRegister[31] 0
5 pcRegister[27] pcRegister[29] 9.60337e-06
6 pcRegister[28] pcRegister[29] 0.000209788
*RES
1 *2282:X pcRegister[29] 19.1569 
*END

*D_NET *112 0.00320661
*CONN
*P pcRegister[2] O
*I *2283:X O *D sky130_fd_sc_hd__clkdlybuf4s25_1
*CAP
1 pcRegister[2] 0.0013613
2 *2283:X 0.0013613
3 pcRegister[2] pcRegister[3] 0.00033487
4 pcRegister[1] pcRegister[2] 0.000149145
*RES
1 *2283:X pcRegister[2] 20.6546 
*END

*D_NET *113 0.00177749
*CONN
*P pcRegister[30] O
*I *2284:X O *D sky130_fd_sc_hd__clkdlybuf4s25_1
*CAP
1 pcRegister[30] 0.000535508
2 *2284:X 0.000535508
3 pcRegister[30] pcRegister[31] 0.000201274
4 pcRegister[30] *1607:A 1.90936e-05
5 pcRegister[28] pcRegister[30] 0.000287587
6 pcRegister[29] pcRegister[30] 0.000198516
*RES
1 *2284:X pcRegister[30] 21.6524 
*END

*D_NET *114 0.00306827
*CONN
*P pcRegister[31] O
*I *2285:X O *D sky130_fd_sc_hd__clkdlybuf4s25_1
*CAP
1 pcRegister[31] 0.00123482
2 *2285:X 0.00123482
3 pcRegister[31] *1922:A 0.000168114
4 pcRegister[31] *1922:C 3.48599e-06
5 pcRegister[31] *2043:D 0
6 pcRegister[31] *2045:D 5.74499e-06
7 pcRegister[31] *2184:A 0.000189867
8 pcRegister[31] *2284:A 4.22135e-06
9 pcRegister[31] *547:71 2.59355e-05
10 pcRegister[29] pcRegister[31] 0
11 pcRegister[30] pcRegister[31] 0.000201274
*RES
1 *2285:X pcRegister[31] 27.1938 
*END

*D_NET *115 0.00226807
*CONN
*P pcRegister[3] O
*I *2286:X O *D sky130_fd_sc_hd__clkdlybuf4s25_1
*CAP
1 pcRegister[3] 0.000699136
2 *2286:X 0.000699136
3 pcRegister[3] pcRegister[4] 0.000233141
4 pcRegister[3] *2291:A 2.06178e-05
5 pcRegister[3] *483:39 0.000271619
6 pcRegister[3] *667:18 9.54798e-06
7 pcRegister[2] pcRegister[3] 0.00033487
*RES
1 *2286:X pcRegister[3] 21.8903 
*END

*D_NET *116 0.00261078
*CONN
*P pcRegister[4] O
*I *2287:X O *D sky130_fd_sc_hd__clkdlybuf4s25_1
*CAP
1 pcRegister[4] 0.000804079
2 *2287:X 0.000804079
3 pcRegister[4] pcRegister[5] 0.000171932
4 pcRegister[4] pcRegister[7] 0
5 pcRegister[4] *1854:A 5.65955e-05
6 pcRegister[4] *1854:B 0.000502378
7 pcRegister[4] *1861:A 0
8 pcRegister[4] *2291:A 0
9 pcRegister[4] *484:12 9.35794e-06
10 pcRegister[4] *488:10 2.92136e-05
11 pcRegister[4] *667:18 0
12 pcRegister[1] pcRegister[4] 0
13 pcRegister[3] pcRegister[4] 0.000233141
*RES
1 *2287:X pcRegister[4] 28.9222 
*END

*D_NET *117 0.00295284
*CONN
*P pcRegister[5] O
*I *2289:X O *D sky130_fd_sc_hd__clkdlybuf4s25_1
*CAP
1 pcRegister[5] 0.000609646
2 *2289:X 0.000609646
3 pcRegister[5] pcRegister[6] 0.000825518
4 pcRegister[5] pcRegister[7] 0.000693738
5 pcRegister[5] *2291:A 3.08664e-05
6 pcRegister[1] pcRegister[5] 1.14933e-05
7 pcRegister[4] pcRegister[5] 0.000171932
*RES
1 *2289:X pcRegister[5] 30.8648 
*END

*D_NET *118 0.00308369
*CONN
*P pcRegister[6] O
*I *2290:X O *D sky130_fd_sc_hd__clkdlybuf4s25_1
*CAP
1 pcRegister[6] 0.000868394
2 *2290:X 0.000868394
3 pcRegister[6] pcRegister[7] 0.000203401
4 pcRegister[6] *1854:B 0
5 pcRegister[0] pcRegister[6] 0.000165291
6 pcRegister[11] pcRegister[6] 0.000115485
7 pcRegister[1] pcRegister[6] 3.72054e-05
8 pcRegister[5] pcRegister[6] 0.000825518
*RES
1 *2290:X pcRegister[6] 35.2034 
*END

*D_NET *119 0.0031176
*CONN
*P pcRegister[7] O
*I *2291:X O *D sky130_fd_sc_hd__clkdlybuf4s25_1
*CAP
1 pcRegister[7] 0.000547667
2 *2291:X 0.000547667
3 pcRegister[7] pcRegister[8] 0.000182989
4 pcRegister[7] *1867:B 0.000283168
5 pcRegister[7] *488:10 3.84268e-05
6 pcRegister[11] pcRegister[7] 0.000308077
7 pcRegister[1] pcRegister[7] 0.00031247
8 pcRegister[4] pcRegister[7] 0
9 pcRegister[5] pcRegister[7] 0.000693738
10 pcRegister[6] pcRegister[7] 0.000203401
*RES
1 *2291:X pcRegister[7] 31.794 
*END

*D_NET *120 0.00266951
*CONN
*P pcRegister[8] O
*I *2292:X O *D sky130_fd_sc_hd__clkdlybuf4s25_1
*CAP
1 pcRegister[8] 0.000788932
2 *2292:X 0.000788932
3 pcRegister[8] pcRegister[9] 0.000383027
4 pcRegister[8] *1864:B 2.82057e-05
5 pcRegister[8] *1867:B 4.50149e-05
6 pcRegister[8] *1872:A 0.00044682
7 pcRegister[8] *543:22 0
8 pcRegister[11] pcRegister[8] 5.58875e-06
9 pcRegister[7] pcRegister[8] 0.000182989
*RES
1 *2292:X pcRegister[8] 27.7053 
*END

*D_NET *121 0.00175085
*CONN
*P pcRegister[9] O
*I *2293:X O *D sky130_fd_sc_hd__clkdlybuf4s25_1
*CAP
1 pcRegister[9] 0.000403383
2 *2293:X 0.000403383
3 pcRegister[9] *1864:A 5.71472e-05
4 pcRegister[9] *1867:B 3.93114e-05
5 pcRegister[10] pcRegister[9] 0.000182989
6 pcRegister[11] pcRegister[9] 0.000281605
7 pcRegister[8] pcRegister[9] 0.000383027
*RES
1 *2293:X pcRegister[9] 24.0261 
*END

*D_NET *122 0.00483196
*CONN
*P red[0] O
*I *2349:LO O *D sky130_fd_sc_hd__conb_1
*CAP
1 red[0] 0.0023239
2 *2349:LO 0.0023239
3 red[0] red[1] 0.000116431
4 red[0] red[2] 2.6513e-05
5 red[0] *1912:B 2.06112e-05
6 red[0] *2040:D 0
7 red[0] *2279:A 2.06112e-05
8 red[0] *169:18 0
*RES
1 *2349:LO red[0] 25.6806 
*END

*D_NET *123 0.00489549
*CONN
*P red[1] O
*I *2350:LO O *D sky130_fd_sc_hd__conb_1
*CAP
1 red[1] 0.00195982
2 *2350:LO 0.00195982
3 red[1] red[2] 0.000114841
4 red[1] *1922:A 4.19624e-06
5 red[1] *1922:C 0.000288824
6 red[1] *1925:B1 0.000392582
7 red[1] *278:22 1.10169e-05
8 red[1] *658:6 2.47809e-05
9 red[1] *658:21 2.31777e-05
10 red[0] red[1] 0.000116431
*RES
1 *2350:LO red[1] 30.9825 
*END

*D_NET *124 0.00574032
*CONN
*P red[2] O
*I *2351:LO O *D sky130_fd_sc_hd__conb_1
*CAP
1 red[2] 0.00231925
2 *2351:LO 0.00231925
3 red[2] red[3] 7.97606e-05
4 red[2] red[4] 0
5 red[2] *1914:B1 0.000395959
6 red[2] *1918:B 6.74439e-05
7 red[2] *2011:A 0
8 red[2] *169:18 0.000304248
9 red[2] *521:31 0.000113063
10 red[2] *647:12 0
11 red[0] red[2] 2.6513e-05
12 red[1] red[2] 0.000114841
*RES
1 *2351:LO red[2] 27.227 
*END

*D_NET *125 0.0047395
*CONN
*P red[3] O
*I *2352:LO O *D sky130_fd_sc_hd__conb_1
*CAP
1 red[3] 0.0021122
2 *2352:LO 0.0021122
3 red[3] red[4] 7.81317e-05
4 red[3] red[5] 0.00028444
5 red[3] red[6] 0
6 red[3] *2045:D 0
7 green[0] red[3] 4.54935e-05
8 green[1] red[3] 2.72626e-05
9 red[2] red[3] 7.97606e-05
*RES
1 *2352:LO red[3] 27.5842 
*END

*D_NET *126 0.00505341
*CONN
*P red[4] O
*I *2353:LO O *D sky130_fd_sc_hd__conb_1
*CAP
1 red[4] 0.00241932
2 *2353:LO 0.00241932
3 red[4] red[5] 8.52226e-05
4 red[4] *1915:A1 0
5 red[4] *1918:B 0
6 red[4] *2040:D 5.14211e-05
7 red[4] *688:68 0
8 red[2] red[4] 0
9 red[3] red[4] 7.81317e-05
*RES
1 *2353:LO red[4] 26.2133 
*END

*D_NET *127 0.00241378
*CONN
*P red[5] O
*I *2354:LO O *D sky130_fd_sc_hd__conb_1
*CAP
1 red[5] 0.000985961
2 *2354:LO 0.000985961
3 red[5] *2045:D 7.21978e-05
4 red[3] red[5] 0.00028444
5 red[4] red[5] 8.52226e-05
*RES
1 *2354:LO red[5] 23.7003 
*END

*D_NET *128 0.0029152
*CONN
*P red[6] O
*I *2355:LO O *D sky130_fd_sc_hd__conb_1
*CAP
1 red[6] 0.00123991
2 *2355:LO 0.00123991
3 red[6] red[7] 0.000133914
4 green[0] red[6] 5.7836e-06
5 green[1] red[6] 0.000295675
6 red[3] red[6] 0
*RES
1 *2355:LO red[6] 32.8961 
*END

*D_NET *129 0.00145936
*CONN
*P red[7] O
*I *2356:LO O *D sky130_fd_sc_hd__conb_1
*CAP
1 red[7] 0.000662721
2 *2356:LO 0.000662721
3 red[6] red[7] 0.000133914
*RES
1 *2356:LO red[7] 32.0525 
*END

*D_NET *130 0.00093317
*CONN
*P reset I
*I *2253:A I *D sky130_fd_sc_hd__clkdlybuf4s25_1
*CAP
1 reset 0.000372951
2 *2253:A 0.000372951
3 mem_addr[0] *2253:A 9.36345e-05
4 *13:8 *2253:A 9.36345e-05
*RES
1 reset *2253:A 23.4232 
*END

*D_NET *131 0.00173135
*CONN
*I *2175:A I *D sky130_fd_sc_hd__dlygate4sd3_1
*I *1843:Y O *D sky130_fd_sc_hd__a21boi_2
*CAP
1 *2175:A 0.000336139
2 *1843:Y 0.000336139
3 *2175:A *1741:A1 0.000218313
4 *2175:A *1796:A 2.59355e-05
5 *2175:A *1843:A2 3.28686e-05
6 *2175:A *2056:CLK 0.000137639
7 *2175:A *2056:RESET_B 2.83284e-06
8 *2175:A *552:62 0
9 *2175:A *556:82 0.000269428
10 *2175:A *716:6 0.000139907
11 *2175:A *716:8 0.000178847
12 *2175:A *716:10 5.33005e-05
*RES
1 *1843:Y *2175:A 36.0464 
*END

*D_NET *132 0.00192516
*CONN
*I *2170:A I *D sky130_fd_sc_hd__dlygate4sd3_1
*I *1842:Y O *D sky130_fd_sc_hd__a21oi_2
*CAP
1 *2170:A 0.000538019
2 *1842:Y 0.000538019
3 *2170:A *1605:A 0.000128496
4 *2170:A *1640:A1 7.02611e-05
5 *2170:A *1643:B1 4.30382e-05
6 *2170:A *1778:A2 6.88728e-05
7 *2170:A *1779:B1_N 0.000309066
8 *2170:A *2015:D 6.74815e-05
9 *2170:A *2082:D 2.05413e-05
10 *2170:A *346:21 2.30116e-06
11 *2170:A *347:10 0.000125731
12 *2170:A *538:65 0
13 *2170:A *538:76 0
14 *2170:A *707:21 1.33343e-05
*RES
1 *1842:Y *2170:A 37.8321 
*END

*D_NET *133 0.00194707
*CONN
*I *2183:A I *D sky130_fd_sc_hd__dlygate4sd3_1
*I *1831:A I *D sky130_fd_sc_hd__nor2_2
*I *1774:Y O *D sky130_fd_sc_hd__a21boi_2
*CAP
1 *2183:A 0.000216892
2 *1831:A 0.000299886
3 *1774:Y 0
4 *133:4 0.000516778
5 *1831:A *1712:A1 1.40415e-05
6 *1831:A *1719:B 6.51946e-05
7 *1831:A *1720:B1_N 0
8 *1831:A *1831:B 6.57648e-05
9 *1831:A *413:31 0.000310307
10 *1831:A *471:12 0.000221634
11 *2183:A *1712:A1 1.15172e-05
12 *2183:A *1774:A2 0.000137983
13 *2183:A *579:12 8.70693e-05
*RES
1 *1774:Y *133:4 9.3 
2 *133:4 *1831:A 25.5143 
3 *133:4 *2183:A 13.1393 
*END

*D_NET *134 0.000660096
*CONN
*I *2090:D I *D sky130_fd_sc_hd__dfrtp_2
*I *1841:X O *D sky130_fd_sc_hd__and2_2
*CAP
1 *2090:D 0.000251358
2 *1841:X 0.000251358
3 *2090:D *2055:CLK 6.16744e-05
4 *2090:D *2059:RESET_B 0
5 *2090:D *551:78 9.57064e-05
*RES
1 *1841:X *2090:D 32.4393 
*END

*D_NET *135 0.0004214
*CONN
*I *2094:D I *D sky130_fd_sc_hd__dfstp_2
*I *1797:X O *D sky130_fd_sc_hd__a211o_2
*CAP
1 *2094:D 8.62359e-05
2 *1797:X 8.62359e-05
3 *2094:D *1796:A 5.33005e-05
4 *2094:D *426:22 6.74815e-05
5 *2094:D *692:78 0.000128146
*RES
1 *1797:X *2094:D 29.7786 
*END

*D_NET *136 0.000492285
*CONN
*I *2096:D I *D sky130_fd_sc_hd__dfrtp_2
*I *1795:X O *D sky130_fd_sc_hd__a21bo_2
*CAP
1 *2096:D 0.000175172
2 *1795:X 0.000175172
3 *2096:D *1985:A 0
4 *2096:D *2096:CLK 0
5 *2096:D *2162:A 0.000141941
*RES
1 *1795:X *2096:D 30.2964 
*END

*D_NET *137 0.000218297
*CONN
*I *2098:D I *D sky130_fd_sc_hd__dfrtp_2
*I *1794:X O *D sky130_fd_sc_hd__a211o_2
*CAP
1 *2098:D 3.85487e-05
2 *1794:X 3.85487e-05
3 *2098:D *556:88 0.000103253
4 *2098:D *694:27 3.79467e-05
*RES
1 *1794:X *2098:D 28.9393 
*END

*D_NET *138 0.000861609
*CONN
*I *2092:D I *D sky130_fd_sc_hd__dfrtp_2
*I *1792:X O *D sky130_fd_sc_hd__and2_2
*CAP
1 *2092:D 0.000219924
2 *1792:X 0.000219924
3 *2092:D *1792:B 0.000163999
4 *2092:D *348:20 0.000160643
5 *2092:D *694:8 9.71197e-05
6 *2092:D *701:57 0
*RES
1 *1792:X *2092:D 32.6179 
*END

*D_NET *139 0.000238527
*CONN
*I *2215:A I *D sky130_fd_sc_hd__dlygate4sd3_1
*I *1791:X O *D sky130_fd_sc_hd__a21o_2
*CAP
1 *2215:A 5.80507e-05
2 *1791:X 5.80507e-05
3 *2215:A *1791:B1 0.00010096
4 *2215:A *1793:B 2.14658e-05
*RES
1 *1791:X *2215:A 19.9571 
*END

*D_NET *140 0.00124531
*CONN
*I *2087:D I *D sky130_fd_sc_hd__dfstp_2
*I *1790:X O *D sky130_fd_sc_hd__or3b_2
*CAP
1 *2087:D 0.000316696
2 *1790:X 0.000316696
3 *2087:D *1610:A 0.000264703
4 *2087:D *1790:A 8.33663e-05
5 *2087:D *415:12 7.74135e-05
6 *2087:D *544:77 0.000105469
7 *2087:D *731:12 8.09674e-05
*RES
1 *1790:X *2087:D 34.5464 
*END

*D_NET *141 0.000849
*CONN
*I *2089:D I *D sky130_fd_sc_hd__dfrtp_2
*I *1789:Y O *D sky130_fd_sc_hd__o21bai_2
*CAP
1 *2089:D 0.000260039
2 *1789:Y 0.000260039
3 *2089:D *1713:B1 5.33005e-05
4 *2089:D *1788:B1 0.000105347
5 *2089:D *413:41 2.84109e-05
6 *2089:D *733:20 0.000141863
*RES
1 *1789:Y *2089:D 33.0464 
*END

*D_NET *142 0.000897017
*CONN
*I *2091:D I *D sky130_fd_sc_hd__dfrtp_2
*I *1788:X O *D sky130_fd_sc_hd__a221o_2
*CAP
1 *2091:D 0.000280633
2 *1788:X 0.000280633
3 *2091:D *1788:B1 0.000236622
4 *2091:D *445:18 9.9129e-05
5 *2091:D *535:43 0
*RES
1 *1788:X *2091:D 32.725 
*END

*D_NET *143 0.000484629
*CONN
*I *2085:D I *D sky130_fd_sc_hd__dfrtp_2
*I *1781:X O *D sky130_fd_sc_hd__and2b_2
*CAP
1 *2085:D 0.000116491
2 *1781:X 0.000116491
3 *2085:D *1625:B 4.58194e-05
4 *2085:D *1760:A1 0.000102053
5 *2085:D *555:80 0.000103775
*RES
1 *1781:X *2085:D 29.8857 
*END

*D_NET *144 0.000854122
*CONN
*I *2086:D I *D sky130_fd_sc_hd__dfrtp_2
*I *1780:X O *D sky130_fd_sc_hd__or2_2
*CAP
1 *2086:D 0.000316546
2 *1780:X 0.000316546
3 *2086:D *1780:A 3.48705e-05
4 *2086:D *1780:B 5.52238e-05
5 *2086:D *2086:CLK 5.26091e-05
6 *2086:D *2242:A 7.8327e-05
*RES
1 *1780:X *2086:D 33.3679 
*END

*D_NET *145 0.000577521
*CONN
*I *2015:D I *D sky130_fd_sc_hd__dfstp_2
*I *1779:X O *D sky130_fd_sc_hd__a21bo_2
*CAP
1 *2015:D 0.000219715
2 *1779:X 0.000219715
3 *2015:D *1779:B1_N 2.89114e-05
4 *2015:D *2016:CLK 4.16984e-05
5 *2015:D *538:65 0
6 *2015:D *538:76 0
7 *2170:A *2015:D 6.74815e-05
*RES
1 *1779:X *2015:D 31.0107 
*END

*D_NET *146 0.000320697
*CONN
*I *2016:D I *D sky130_fd_sc_hd__dfrtp_2
*I *1778:X O *D sky130_fd_sc_hd__a22o_2
*CAP
1 *2016:D 0.000160348
2 *1778:X 0.000160348
3 *2016:D *1778:B2 0
4 *2016:D *701:74 0
*RES
1 *1778:X *2016:D 30.1536 
*END

*D_NET *147 0.00080807
*CONN
*I *2013:D I *D sky130_fd_sc_hd__dfstp_2
*I *1777:X O *D sky130_fd_sc_hd__a21o_2
*CAP
1 *2013:D 0.000313142
2 *1777:X 0.000313142
3 *2013:D *341:12 4.00276e-06
4 *2013:D *341:31 3.06878e-06
5 *2013:D *778:10 1.9774e-05
6 *2013:D *778:25 5.49544e-05
7 *2013:D *778:36 9.99853e-05
*RES
1 *1777:X *2013:D 31.8321 
*END

*D_NET *148 0.000267593
*CONN
*I *2014:D I *D sky130_fd_sc_hd__dfrtp_2
*I *1776:X O *D sky130_fd_sc_hd__or2_2
*CAP
1 *2014:D 0.000133796
2 *1776:X 0.000133796
3 *2014:D *2029:CLK 0
*RES
1 *1776:X *2014:D 29.7786 
*END

*D_NET *149 0.000394442
*CONN
*I *2105:D I *D sky130_fd_sc_hd__dfrtp_2
*I *1618:Y O *D sky130_fd_sc_hd__inv_2
*CAP
1 *2105:D 0.000166214
2 *1618:Y 0.000166214
3 *2105:D *1618:A 3.69047e-06
4 *2105:D *2105:CLK 5.83233e-05
5 *2105:D *2220:A 0
6 *2105:D *535:351 0
*RES
1 *1618:Y *2105:D 30.3857 
*END

*D_NET *150 0.00130515
*CONN
*I *2115:D I *D sky130_fd_sc_hd__dfrtp_2
*I *1820:X O *D sky130_fd_sc_hd__xor2_2
*CAP
1 *2115:D 0.000273887
2 *1820:X 0.000273887
3 *2115:D *1822:B1 2.59355e-05
4 *2115:D *2117:CLK 0.000226647
5 *2115:D *2189:A 0.000310611
6 *2115:D *535:233 2.11693e-05
7 *2115:D *696:38 0.000173015
*RES
1 *1820:X *2115:D 34.7071 
*END

*D_NET *151 0.000663435
*CONN
*I *2116:D I *D sky130_fd_sc_hd__dfrtp_2
*I *1823:Y O *D sky130_fd_sc_hd__nor2_2
*CAP
1 *2116:D 0.000130558
2 *1823:Y 0.000130558
3 *2116:D *1821:A 6.65817e-05
4 *2116:D *1821:B 0.00022459
5 *2116:D *1823:A 5.62995e-05
6 *2116:D *539:35 5.48488e-05
*RES
1 *1823:Y *2116:D 31.725 
*END

*D_NET *152 0.000676586
*CONN
*I *2117:D I *D sky130_fd_sc_hd__dfrtp_2
*I *1824:X O *D sky130_fd_sc_hd__xor2_2
*CAP
1 *2117:D 0.000209454
2 *1824:X 0.000209454
3 *2117:D *1655:C 8.52549e-05
4 *2117:D *2117:RESET_B 0.000172422
*RES
1 *1824:X *2117:D 32.0286 
*END

*D_NET *153 0.000391034
*CONN
*I *2118:D I *D sky130_fd_sc_hd__dfrtp_2
*I *1827:Y O *D sky130_fd_sc_hd__nor2_2
*CAP
1 *2118:D 4.46646e-05
2 *1827:Y 4.46646e-05
3 *2118:D *468:14 0.000149372
4 *2118:D *685:26 0.000152333
*RES
1 *1827:Y *2118:D 29.5464 
*END

*D_NET *154 0.000588206
*CONN
*I *2119:D I *D sky130_fd_sc_hd__dfrtp_2
*I *1829:X O *D sky130_fd_sc_hd__xor2_2
*CAP
1 *2119:D 0.000104527
2 *1829:X 0.000104527
3 *2119:D *1828:A 2.59355e-05
4 *2119:D *2118:CLK 5.33005e-05
5 *2119:D *548:12 7.76604e-05
6 *2119:D *688:60 0.000222256
*RES
1 *1829:X *2119:D 30.9929 
*END

*D_NET *155 0.000352158
*CONN
*I *2120:D I *D sky130_fd_sc_hd__dfrtp_2
*I *1830:Y O *D sky130_fd_sc_hd__xnor2_2
*CAP
1 *2120:D 5.74663e-05
2 *1830:Y 5.74663e-05
3 *2120:D *1803:A2 4.27842e-06
4 *2120:D *548:58 5.60062e-05
5 *2120:D *688:60 0.000176941
*RES
1 *1830:Y *2120:D 29.85 
*END

*D_NET *156 0.000380578
*CONN
*I *2106:D I *D sky130_fd_sc_hd__dfrtp_2
*I *1802:X O *D sky130_fd_sc_hd__xor2_2
*CAP
1 *2106:D 7.94906e-05
2 *1802:X 7.94906e-05
3 *2106:D *2192:A 2.59355e-05
4 *2106:D *522:16 0.000128161
5 *2106:D *740:44 6.75007e-05
*RES
1 *1802:X *2106:D 29.7786 
*END

*D_NET *157 0.00124663
*CONN
*I *2107:D I *D sky130_fd_sc_hd__dfrtp_2
*I *1804:Y O *D sky130_fd_sc_hd__nor2_2
*CAP
1 *2107:D 0.000322582
2 *1804:Y 0.000322582
3 *2107:D *1649:A 5.52302e-05
4 *2107:D *1651:C 5.57989e-05
5 *2107:D *1651:D 9.99853e-05
6 *2107:D *1804:B 6.72277e-05
7 *2107:D *549:12 5.66157e-05
8 *2107:D *549:16 6.05161e-06
9 *2107:D *549:40 0.000153054
10 *2107:D *747:25 0.000107503
*RES
1 *1804:Y *2107:D 34.9214 
*END

*D_NET *158 0.00112157
*CONN
*I *2108:D I *D sky130_fd_sc_hd__dfrtp_2
*I *1805:X O *D sky130_fd_sc_hd__xor2_2
*CAP
1 *2108:D 0.000456092
2 *1805:X 0.000456092
3 *2108:D *1619:A 0
4 *2108:D *2108:RESET_B 2.5385e-05
5 *2108:D *323:18 6.05161e-06
6 *2108:D *670:70 0.000177948
*RES
1 *1805:X *2108:D 35.725 
*END

*D_NET *159 0.000444079
*CONN
*I *2109:D I *D sky130_fd_sc_hd__dfrtp_2
*I *1806:Y O *D sky130_fd_sc_hd__xnor2_2
*CAP
1 *2109:D 0.000126809
2 *1806:Y 0.000126809
3 *2109:D *1651:C 2.34204e-05
4 *2109:D *2109:CLK 6.05161e-06
5 *2109:D *549:40 0.000100823
6 *2109:D *749:8 5.33005e-05
7 *2109:D *749:21 6.8646e-06
*RES
1 *1806:Y *2109:D 30.0107 
*END

*D_NET *160 0.000912664
*CONN
*I *2110:D I *D sky130_fd_sc_hd__dfrtp_2
*I *1809:Y O *D sky130_fd_sc_hd__nor3_2
*CAP
1 *2110:D 0.000169984
2 *1809:Y 0.000169984
3 *2110:D *1928:B 0.000228514
4 *2110:D *549:68 0.000172091
5 *2110:D *687:70 0.000172091
*RES
1 *1809:Y *2110:D 32.4393 
*END

*D_NET *161 0.000413382
*CONN
*I *2111:D I *D sky130_fd_sc_hd__dfrtp_2
*I *1812:X O *D sky130_fd_sc_hd__and2_2
*CAP
1 *2111:D 0.00013973
2 *1812:X 0.00013973
3 *2111:D *1813:A 9.84729e-05
4 *2111:D *2112:D 3.54498e-05
*RES
1 *1812:X *2111:D 29.8857 
*END

*D_NET *162 0.000735626
*CONN
*I *2112:D I *D sky130_fd_sc_hd__dfrtp_2
*I *1813:Y O *D sky130_fd_sc_hd__xnor2_2
*CAP
1 *2112:D 0.000238812
2 *1813:Y 0.000238812
3 *2112:D *1812:B 6.13812e-05
4 *2112:D *2111:CLK 9.50149e-05
5 *2112:D *459:58 6.26466e-05
6 *2112:D *752:10 3.50949e-06
7 *2112:D *752:84 0
8 *2111:D *2112:D 3.54498e-05
*RES
1 *1813:Y *2112:D 32.6179 
*END

*D_NET *163 0.000214573
*CONN
*I *2113:D I *D sky130_fd_sc_hd__dfrtp_2
*I *1816:Y O *D sky130_fd_sc_hd__nor3_2
*CAP
1 *2113:D 5.3386e-05
2 *1816:Y 5.3386e-05
3 *2113:D *1658:B 0.000104974
4 *2113:D *1815:D 2.8266e-06
5 *2113:D *463:8 0
*RES
1 *1816:Y *2113:D 28.9393 
*END

*D_NET *164 0.000976695
*CONN
*I *2114:D I *D sky130_fd_sc_hd__dfrtp_2
*I *1819:X O *D sky130_fd_sc_hd__o21a_2
*CAP
1 *2114:D 0.000311486
2 *1819:X 0.000311486
3 *2114:D *1819:B1 8.16036e-05
4 *2114:D *2114:RESET_B 0.000119065
5 *2114:D *366:10 0.000153054
*RES
1 *1819:X *2114:D 34.1893 
*END

*D_NET *165 0.000660325
*CONN
*I *2104:D I *D sky130_fd_sc_hd__dfrtp_2
*I *1800:X O *D sky130_fd_sc_hd__and2_2
*CAP
1 *2104:D 0.000245963
2 *1800:X 0.000245963
3 *2104:D *2103:D 0
4 *2104:D *335:23 0
5 *2104:D *341:31 1.1979e-05
6 *2104:D *684:10 0.00015642
*RES
1 *1800:X *2104:D 32.3143 
*END

*D_NET *166 0.000320444
*CONN
*I *2102:D I *D sky130_fd_sc_hd__dfstp_2
*I *1798:X O *D sky130_fd_sc_hd__a21o_2
*CAP
1 *2102:D 0.000141859
2 *1798:X 0.000141859
3 *2102:D *535:209 0
4 *2102:D *539:18 3.67257e-05
5 *2102:D *708:10 0
*RES
1 *1798:X *2102:D 30.1893 
*END

*D_NET *167 0.000926397
*CONN
*I *2101:D I *D sky130_fd_sc_hd__dfstp_2
*I *1799:X O *D sky130_fd_sc_hd__a21o_2
*CAP
1 *2101:D 0.000340532
2 *1799:X 0.000340532
3 *2101:D *2101:SET_B 3.17067e-05
4 *2101:D *535:209 7.26935e-05
5 *2101:D *539:18 0
6 *2101:D *539:20 0.000140933
*RES
1 *1799:X *2101:D 34.1 
*END

*D_NET *168 0.000221827
*CONN
*I *2103:D I *D sky130_fd_sc_hd__dfrtp_2
*I *1801:X O *D sky130_fd_sc_hd__and2_2
*CAP
1 *2103:D 5.96411e-05
2 *1801:X 5.96411e-05
3 *2103:D *335:23 0.000102545
4 *2104:D *2103:D 0
*RES
1 *1801:X *2103:D 28.9393 
*END

*D_NET *169 0.016824
*CONN
*I *1931:A I *D sky130_fd_sc_hd__and3_2
*I *1922:A I *D sky130_fd_sc_hd__and3_2
*I *2012:RESET_B I *D sky130_fd_sc_hd__dfrtp_2
*I *1883:C1 I *D sky130_fd_sc_hd__o211a_2
*I *1875:C1 I *D sky130_fd_sc_hd__o211a_2
*I *1868:B1 I *D sky130_fd_sc_hd__o21ai_2
*I *1619:Y O *D sky130_fd_sc_hd__inv_2
*CAP
1 *1931:A 4.62102e-05
2 *1922:A 0.000485977
3 *2012:RESET_B 0.00114386
4 *1883:C1 0
5 *1875:C1 0.000379898
6 *1868:B1 0
7 *1619:Y 0
8 *169:79 0.000942276
9 *169:28 0.000425232
10 *169:26 0.000177115
11 *169:18 0.00525847
12 *169:6 0.00439292
13 *1875:C1 *1868:A2 0
14 *1875:C1 *1875:B1 1.8461e-05
15 *1875:C1 *2298:A 0.000105972
16 *1875:C1 *492:79 0.000111428
17 *1875:C1 *492:87 9.3111e-05
18 *1922:A *1922:C 2.84026e-05
19 *1922:A *1925:B1 1.06305e-05
20 *1922:A *2044:CLK 0.000198828
21 *1922:A *2045:D 8.38205e-05
22 *1922:A *2122:SET_B 5.49544e-05
23 *1922:A *2284:A 0
24 *1922:A *278:22 4.16129e-05
25 *1922:A *658:36 9.44309e-06
26 *1922:A *660:6 0.000119279
27 *1922:A *660:27 0.000140681
28 *2012:RESET_B *1881:B 2.93754e-05
29 *2012:RESET_B *1887:D1 5.30847e-05
30 *2012:RESET_B *496:22 7.6644e-05
31 *2012:RESET_B *506:10 1.12484e-05
32 *2012:RESET_B *555:6 5.01643e-05
33 *169:18 *1914:B1 3.69173e-05
34 *169:18 *2011:A 0
35 *169:18 *2038:D 0.000241775
36 *169:18 *323:18 0.000164633
37 *169:18 *496:54 0.000102847
38 *169:18 *636:34 0.000162911
39 *169:26 *2025:D 1.78465e-05
40 *169:26 *496:54 4.29471e-05
41 *169:28 *492:79 9.60875e-05
42 *169:79 *1931:B 0.000136727
43 *169:79 *2046:D 0.00013262
44 *169:79 *2277:A 9.94001e-05
45 *169:79 *323:18 0.000235823
46 *169:79 *528:20 0.000212878
47 *169:79 *658:36 0.000174887
48 pcRegister[31] *1922:A 0.000168114
49 red[0] *169:18 0
50 red[1] *1922:A 4.19624e-06
51 red[2] *169:18 0.000304248
*RES
1 *1619:Y *169:6 13.8 
2 *169:6 *169:18 20.207 
3 *169:18 *169:26 8.64546 
4 *169:26 *169:28 0.946429 
5 *169:28 *1868:B1 9.3 
6 *169:28 *1875:C1 16.4429 
7 *169:26 *1883:C1 9.3 
8 *169:18 *2012:RESET_B 15.3094 
9 *169:6 *169:79 15.0536 
10 *169:79 *1922:A 29.8536 
11 *169:79 *1931:A 10.3357 
*END

*D_NET *170 0.000176262
*CONN
*I *2013:SET_B I *D sky130_fd_sc_hd__dfstp_2
*I *1932:Y O *D sky130_fd_sc_hd__inv_2
*CAP
1 *2013:SET_B 6.23839e-05
2 *1932:Y 6.23839e-05
3 *2013:SET_B *345:12 5.14943e-05
*RES
1 *1932:Y *2013:SET_B 19.6393 
*END

*D_NET *171 0.000416617
*CONN
*I *2014:RESET_B I *D sky130_fd_sc_hd__dfrtp_2
*I *1933:Y O *D sky130_fd_sc_hd__inv_2
*CAP
1 *2014:RESET_B 0.000134674
2 *1933:Y 0.000134674
3 *2014:RESET_B *1776:B 0.000147268
*RES
1 *1933:Y *2014:RESET_B 21.0857 
*END

*D_NET *172 0.000471739
*CONN
*I *2015:SET_B I *D sky130_fd_sc_hd__dfstp_2
*I *1934:Y O *D sky130_fd_sc_hd__inv_2
*CAP
1 *2015:SET_B 0.000196706
2 *1934:Y 0.000196706
3 *2015:SET_B *1779:A2 0
4 *2015:SET_B *1779:B1_N 7.8327e-05
5 *2015:SET_B *538:76 0
6 *2015:SET_B *701:74 0
*RES
1 *1934:Y *2015:SET_B 22.0679 
*END

*D_NET *173 0.00027701
*CONN
*I *2016:RESET_B I *D sky130_fd_sc_hd__dfrtp_2
*I *1935:Y O *D sky130_fd_sc_hd__inv_2
*CAP
1 *2016:RESET_B 0.000138505
2 *1935:Y 0.000138505
*RES
1 *1935:Y *2016:RESET_B 20.175 
*END

*D_NET *174 0.000323087
*CONN
*I *2047:RESET_B I *D sky130_fd_sc_hd__dfrtp_2
*I *1936:Y O *D sky130_fd_sc_hd__inv_2
*CAP
1 *2047:RESET_B 0.000109373
2 *1936:Y 0.000109373
3 *2047:RESET_B *1754:B2 4.93875e-05
4 *2047:RESET_B *557:22 5.49544e-05
*RES
1 *1936:Y *2047:RESET_B 20.175 
*END

*D_NET *175 0.00082187
*CONN
*I *2048:RESET_B I *D sky130_fd_sc_hd__dfrtp_2
*I *1937:Y O *D sky130_fd_sc_hd__inv_2
*CAP
1 *2048:RESET_B 0.000274522
2 *1937:Y 0.000274522
3 *2048:RESET_B *2162:A 1.16543e-05
4 *2048:RESET_B *2258:A 7.49346e-05
5 *2048:RESET_B *557:14 8.77688e-05
6 *2048:RESET_B *689:44 9.84673e-05
*RES
1 *1937:Y *2048:RESET_B 23.2018 
*END

*D_NET *176 0.00123834
*CONN
*I *2049:RESET_B I *D sky130_fd_sc_hd__dfrtp_2
*I *1938:Y O *D sky130_fd_sc_hd__inv_2
*CAP
1 *2049:RESET_B 0.000240141
2 *1938:Y 0.000240141
3 *2049:RESET_B *1737:A 5.33005e-05
4 *2049:RESET_B *1737:B 9.41642e-05
5 *2049:RESET_B *1739:A 0.000197516
6 *2049:RESET_B *2096:CLK 9.36295e-05
7 *2049:RESET_B *537:28 9.86602e-05
8 *2049:RESET_B *553:8 0.000220783
9 *2049:RESET_B *692:42 0
*RES
1 *1938:Y *2049:RESET_B 25.2911 
*END

*D_NET *177 0.000312178
*CONN
*I *2050:RESET_B I *D sky130_fd_sc_hd__dfrtp_2
*I *1939:Y O *D sky130_fd_sc_hd__inv_2
*CAP
1 *2050:RESET_B 0.000118192
2 *1939:Y 0.000118192
3 *2050:RESET_B *535:154 7.57941e-05
4 *2050:RESET_B *690:75 0
*RES
1 *1939:Y *2050:RESET_B 20.55 
*END

*D_NET *178 0.000825552
*CONN
*I *2051:RESET_B I *D sky130_fd_sc_hd__dfrtp_2
*I *1940:Y O *D sky130_fd_sc_hd__inv_2
*CAP
1 *2051:RESET_B 0.000220966
2 *1940:Y 0.000220966
3 *2051:RESET_B *1747:B 4.43256e-05
4 *2051:RESET_B *1747:C 9.90367e-05
5 *2051:RESET_B *712:12 4.43256e-05
6 *2051:RESET_B *713:16 7.79781e-06
7 *2051:RESET_B *714:36 0.000179025
8 *2051:RESET_B *714:40 9.11048e-06
*RES
1 *1940:Y *2051:RESET_B 22.7732 
*END

*D_NET *179 0.00116469
*CONN
*I *2052:RESET_B I *D sky130_fd_sc_hd__dfrtp_2
*I *1941:Y O *D sky130_fd_sc_hd__inv_2
*CAP
1 *2052:RESET_B 0.000313977
2 *1941:Y 0.000313977
3 *2052:RESET_B *1744:A 0.000125567
4 *2052:RESET_B *1783:A2 1.03904e-05
5 *2052:RESET_B *442:10 0.000147769
6 *2052:RESET_B *446:12 0
7 *2052:RESET_B *450:12 7.58841e-05
8 *2052:RESET_B *535:15 8.15977e-05
9 *2052:RESET_B *535:33 4.05231e-05
10 *2052:RESET_B *551:18 5.49995e-05
11 *2052:RESET_B *731:124 0
*RES
1 *1941:Y *2052:RESET_B 25.0321 
*END

*D_NET *180 0.00027997
*CONN
*I *2053:RESET_B I *D sky130_fd_sc_hd__dfrtp_2
*I *1942:Y O *D sky130_fd_sc_hd__inv_2
*CAP
1 *2053:RESET_B 0.000105471
2 *1942:Y 0.000105471
3 *2053:RESET_B *1942:A 1.33343e-05
4 *2053:RESET_B *436:12 0
5 *2053:RESET_B *731:124 5.56943e-05
*RES
1 *1942:Y *2053:RESET_B 20.175 
*END

*D_NET *181 0.00135305
*CONN
*I *2054:RESET_B I *D sky130_fd_sc_hd__dfrtp_2
*I *1943:Y O *D sky130_fd_sc_hd__inv_2
*CAP
1 *2054:RESET_B 0.00033199
2 *1943:Y 0.00033199
3 *2054:RESET_B *1740:A1 0.000139338
4 *2054:RESET_B *1740:A2 0.000184503
5 *2054:RESET_B *1740:B1 0.000227971
6 *2054:RESET_B *407:12 0.000112203
7 *2054:RESET_B *692:14 2.50593e-05
*RES
1 *1943:Y *2054:RESET_B 26.2107 
*END

*D_NET *182 0.000796518
*CONN
*I *2055:RESET_B I *D sky130_fd_sc_hd__dfrtp_2
*I *1944:Y O *D sky130_fd_sc_hd__inv_2
*CAP
1 *2055:RESET_B 0.000339728
2 *1944:Y 0.000339728
3 *2055:RESET_B *1944:A 0
4 *13:12 *2055:RESET_B 0.000117062
*RES
1 *1944:Y *2055:RESET_B 24.0857 
*END

*D_NET *183 0.00147943
*CONN
*I *2056:RESET_B I *D sky130_fd_sc_hd__dfrtp_2
*I *1945:Y O *D sky130_fd_sc_hd__inv_2
*CAP
1 *2056:RESET_B 0.000573901
2 *1945:Y 0.000573901
3 *2056:RESET_B *1741:A1 0
4 *2056:RESET_B *1945:A 0.000178552
5 *2056:RESET_B *2174:A 4.97967e-05
6 *2056:RESET_B *552:62 4.54407e-05
7 *2056:RESET_B *692:78 5.50052e-05
8 *2175:A *2056:RESET_B 2.83284e-06
*RES
1 *1945:Y *2056:RESET_B 26.5321 
*END

*D_NET *184 0.000305503
*CONN
*I *2057:RESET_B I *D sky130_fd_sc_hd__dfrtp_2
*I *1946:Y O *D sky130_fd_sc_hd__inv_2
*CAP
1 *2057:RESET_B 0.00012223
2 *1946:Y 0.00012223
3 *2057:RESET_B *1855:A2 2.11336e-05
4 *2057:RESET_B *447:30 3.99088e-05
*RES
1 *1946:Y *2057:RESET_B 20.4786 
*END

*D_NET *185 0.00151294
*CONN
*I *2058:RESET_B I *D sky130_fd_sc_hd__dfrtp_2
*I *1947:Y O *D sky130_fd_sc_hd__inv_2
*CAP
1 *2058:RESET_B 0.000370826
2 *1947:Y 0.000370826
3 *2058:RESET_B *1730:A 3.08664e-05
4 *2058:RESET_B *2058:CLK 3.08664e-05
5 *2058:RESET_B *2058:D 9.8621e-05
6 *2058:RESET_B *2156:A 0.00043381
7 *2058:RESET_B *291:22 9.32542e-05
8 *2058:RESET_B *544:77 8.38681e-05
*RES
1 *1947:Y *2058:RESET_B 27.2018 
*END

*D_NET *186 0.00053231
*CONN
*I *2059:RESET_B I *D sky130_fd_sc_hd__dfrtp_2
*I *1948:Y O *D sky130_fd_sc_hd__inv_2
*CAP
1 *2059:RESET_B 0.000211147
2 *1948:Y 0.000211147
3 *2059:RESET_B *1783:A2 0
4 *2059:RESET_B *1841:B 0
5 *2059:RESET_B *2090:RESET_B 9.80029e-05
6 *2059:RESET_B *726:8 1.20135e-05
7 *2090:D *2059:RESET_B 0
*RES
1 *1948:Y *2059:RESET_B 22.5411 
*END

*D_NET *187 0.000195937
*CONN
*I *2060:RESET_B I *D sky130_fd_sc_hd__dfrtp_2
*I *1949:Y O *D sky130_fd_sc_hd__inv_2
*CAP
1 *2060:RESET_B 7.66276e-05
2 *1949:Y 7.66276e-05
3 *2060:RESET_B *1783:B2 4.26814e-05
*RES
1 *1949:Y *2060:RESET_B 19.9429 
*END

*D_NET *188 0.000884071
*CONN
*I *2061:RESET_B I *D sky130_fd_sc_hd__dfrtp_2
*I *1950:Y O *D sky130_fd_sc_hd__inv_2
*CAP
1 *2061:RESET_B 0.000311685
2 *1950:Y 0.000311685
3 *2061:RESET_B *550:14 4.29272e-05
4 *2061:RESET_B *550:36 6.35892e-05
5 *2061:RESET_B *681:8 0
6 *2061:RESET_B *728:10 8.05676e-05
7 *2061:RESET_B *728:27 7.36174e-05
*RES
1 *1950:Y *2061:RESET_B 25.0054 
*END

*D_NET *189 0.000307166
*CONN
*I *2062:RESET_B I *D sky130_fd_sc_hd__dfrtp_2
*I *1951:Y O *D sky130_fd_sc_hd__inv_2
*CAP
1 *2062:RESET_B 0.000116068
2 *1951:Y 0.000116068
3 *2062:RESET_B *1951:A 6.05161e-06
4 *2062:RESET_B *2092:CLK 1.56e-05
5 *2062:RESET_B *2162:A 5.33786e-05
6 *2062:RESET_B *407:12 0
*RES
1 *1951:Y *2062:RESET_B 20.175 
*END

*D_NET *190 0.00097153
*CONN
*I *2063:RESET_B I *D sky130_fd_sc_hd__dfrtp_2
*I *1952:Y O *D sky130_fd_sc_hd__inv_2
*CAP
1 *2063:RESET_B 0.000281825
2 *1952:Y 0.000281825
3 *2063:RESET_B *329:12 0
4 *2063:RESET_B *402:8 5.71472e-05
5 *2063:RESET_B *413:41 1.17968e-05
6 *2063:RESET_B *705:10 0.000199053
7 *2063:RESET_B *705:12 0.000127446
8 *2063:RESET_B *733:16 1.24368e-05
*RES
1 *1952:Y *2063:RESET_B 23.4875 
*END

*D_NET *191 0.000755487
*CONN
*I *2064:RESET_B I *D sky130_fd_sc_hd__dfrtp_2
*I *1953:Y O *D sky130_fd_sc_hd__inv_2
*CAP
1 *2064:RESET_B 0.000118196
2 *1953:Y 0.000118196
3 *2064:RESET_B *2064:D 0.000116348
4 *2064:RESET_B *484:12 0.000219665
5 *2064:RESET_B *659:14 8.82593e-05
6 *2064:RESET_B *678:18 5.72374e-05
7 *2064:RESET_B *678:20 3.75868e-05
*RES
1 *1953:Y *2064:RESET_B 22.6661 
*END

*D_NET *192 0.000402191
*CONN
*I *2065:RESET_B I *D sky130_fd_sc_hd__dfrtp_2
*I *1954:Y O *D sky130_fd_sc_hd__inv_2
*CAP
1 *2065:RESET_B 0.000114371
2 *1954:Y 0.000114371
3 *2065:RESET_B *2065:D 0
4 *2065:RESET_B *679:23 0.000173448
*RES
1 *1954:Y *2065:RESET_B 20.55 
*END

*D_NET *193 0.000518145
*CONN
*I *2066:RESET_B I *D sky130_fd_sc_hd__dfrtp_2
*I *1955:Y O *D sky130_fd_sc_hd__inv_2
*CAP
1 *2066:RESET_B 0.00011085
2 *1955:Y 0.00011085
3 *2066:RESET_B *1703:A 9.56193e-05
4 *2066:RESET_B *1703:B 0.000101178
5 *2066:RESET_B *696:80 9.96487e-05
*RES
1 *1955:Y *2066:RESET_B 20.5857 
*END

*D_NET *194 0.000999527
*CONN
*I *2067:RESET_B I *D sky130_fd_sc_hd__dfrtp_2
*I *1956:Y O *D sky130_fd_sc_hd__inv_2
*CAP
1 *2067:RESET_B 0.000404379
2 *1956:Y 0.000404379
3 *2067:RESET_B *1956:A 7.6941e-05
4 *2067:RESET_B *2241:A 7.62323e-05
5 *2067:RESET_B *763:8 3.75959e-05
*RES
1 *1956:Y *2067:RESET_B 24.4339 
*END

*D_NET *195 0.000398628
*CONN
*I *2068:RESET_B I *D sky130_fd_sc_hd__dfrtp_2
*I *1957:Y O *D sky130_fd_sc_hd__inv_2
*CAP
1 *2068:RESET_B 0.000131123
2 *1957:Y 0.000131123
3 *2068:RESET_B *764:14 1.95287e-05
4 *2068:RESET_B *765:60 0.000116853
*RES
1 *1957:Y *2068:RESET_B 21.0857 
*END

*D_NET *196 0.000269807
*CONN
*I *2069:RESET_B I *D sky130_fd_sc_hd__dfrtp_2
*I *1958:Y O *D sky130_fd_sc_hd__inv_2
*CAP
1 *2069:RESET_B 0.000115966
2 *1958:Y 0.000115966
3 *2069:RESET_B *542:73 3.18227e-05
4 *2069:RESET_B *699:58 6.05161e-06
*RES
1 *1958:Y *2069:RESET_B 20.175 
*END

*D_NET *197 0.000223435
*CONN
*I *2070:RESET_B I *D sky130_fd_sc_hd__dfrtp_2
*I *1959:Y O *D sky130_fd_sc_hd__inv_2
*CAP
1 *2070:RESET_B 6.10446e-05
2 *1959:Y 6.10446e-05
3 *2070:RESET_B *1959:A 0.000101346
4 *2070:RESET_B *699:58 0
*RES
1 *1959:Y *2070:RESET_B 19.6393 
*END

*D_NET *198 0.000897653
*CONN
*I *2071:RESET_B I *D sky130_fd_sc_hd__dfrtp_2
*I *1960:Y O *D sky130_fd_sc_hd__inv_2
*CAP
1 *2071:RESET_B 0.000385607
2 *1960:Y 0.000385607
3 *2071:RESET_B *1688:B 0
4 *2071:RESET_B *2207:A 0.000126439
5 mem_wdata[21] *2071:RESET_B 0
6 mem_wdata[22] *2071:RESET_B 0
*RES
1 *1960:Y *2071:RESET_B 24.2464 
*END

*D_NET *199 0.000220716
*CONN
*I *2072:RESET_B I *D sky130_fd_sc_hd__dfrtp_2
*I *1961:Y O *D sky130_fd_sc_hd__inv_2
*CAP
1 *2072:RESET_B 5.94789e-05
2 *1961:Y 5.94789e-05
3 *2072:RESET_B *699:32 0
4 *2072:RESET_B *700:46 0.000101758
*RES
1 *1961:Y *2072:RESET_B 19.6393 
*END

*D_NET *200 0.000412836
*CONN
*I *2073:RESET_B I *D sky130_fd_sc_hd__dfrtp_2
*I *1962:Y O *D sky130_fd_sc_hd__inv_2
*CAP
1 *2073:RESET_B 0.000206418
2 *1962:Y 0.000206418
3 *2073:RESET_B *768:38 0
4 mem_wdata[14] *2073:RESET_B 0
*RES
1 *1962:Y *2073:RESET_B 21.9964 
*END

*D_NET *201 0.0007791
*CONN
*I *2074:RESET_B I *D sky130_fd_sc_hd__dfrtp_2
*I *1963:Y O *D sky130_fd_sc_hd__inv_2
*CAP
1 *2074:RESET_B 0.000265971
2 *1963:Y 0.000265971
3 *2074:RESET_B *1683:B 0.000154762
4 *2074:RESET_B *696:61 7.85165e-05
5 *2074:RESET_B *696:80 1.38796e-05
*RES
1 *1963:Y *2074:RESET_B 23.4875 
*END

*D_NET *202 0.000829128
*CONN
*I *2075:RESET_B I *D sky130_fd_sc_hd__dfrtp_2
*I *1964:Y O *D sky130_fd_sc_hd__inv_2
*CAP
1 *2075:RESET_B 0.000169786
2 *1964:Y 0.000169786
3 *2075:RESET_B *1681:B1 0.00017599
4 *2075:RESET_B *1964:A 2.02073e-05
5 *2075:RESET_B *2075:D 9.85137e-05
6 *2075:RESET_B *2076:D 0.000100236
7 *2075:RESET_B *771:8 9.46105e-05
*RES
1 *1964:Y *2075:RESET_B 22.2911 
*END

*D_NET *203 0.000801491
*CONN
*I *2076:RESET_B I *D sky130_fd_sc_hd__dfrtp_2
*I *1965:Y O *D sky130_fd_sc_hd__inv_2
*CAP
1 *2076:RESET_B 0.000304634
2 *1965:Y 0.000304634
3 *2076:RESET_B *1671:B 0
4 *2076:RESET_B *2077:CLK 0.000127806
5 *2076:RESET_B *2077:D 0
6 *2076:RESET_B *2261:A 1.58559e-05
7 *2076:RESET_B *541:65 2.81499e-05
8 *2076:RESET_B *696:20 2.04109e-05
*RES
1 *1965:Y *2076:RESET_B 24.8 
*END

*D_NET *204 0.000382759
*CONN
*I *2077:RESET_B I *D sky130_fd_sc_hd__dfrtp_2
*I *1966:Y O *D sky130_fd_sc_hd__inv_2
*CAP
1 *2077:RESET_B 0.000175946
2 *1966:Y 0.000175946
3 *2077:RESET_B *2078:CLK 3.08664e-05
*RES
1 *1966:Y *2077:RESET_B 21.0857 
*END

*D_NET *205 0.000339732
*CONN
*I *2078:RESET_B I *D sky130_fd_sc_hd__dfrtp_2
*I *1967:Y O *D sky130_fd_sc_hd__inv_2
*CAP
1 *2078:RESET_B 0.000100831
2 *1967:Y 0.000100831
3 *2078:RESET_B *1664:C 0
4 *2078:RESET_B *1965:A 0.000124735
5 *2078:RESET_B *698:27 1.33343e-05
*RES
1 *1967:Y *2078:RESET_B 20.175 
*END

*D_NET *206 0.00061988
*CONN
*I *2079:RESET_B I *D sky130_fd_sc_hd__dfrtp_2
*I *1968:Y O *D sky130_fd_sc_hd__inv_2
*CAP
1 *2079:RESET_B 0.000244195
2 *1968:Y 0.000244195
3 *2079:RESET_B *1664:A 0
4 *2079:RESET_B *1664:C 0
5 *2079:RESET_B *1670:B 0.000131491
6 *2079:RESET_B *701:92 0
7 *2079:RESET_B *759:10 0
*RES
1 *1968:Y *2079:RESET_B 22.9786 
*END

*D_NET *207 0.000345907
*CONN
*I *2080:RESET_B I *D sky130_fd_sc_hd__dfrtp_2
*I *1969:Y O *D sky130_fd_sc_hd__inv_2
*CAP
1 *2080:RESET_B 4.34596e-05
2 *1969:Y 4.34596e-05
3 *2080:RESET_B *1678:B 7.58841e-05
4 *2080:RESET_B *699:23 0.000125679
5 *2080:RESET_B *761:14 5.74242e-05
*RES
1 *1969:Y *2080:RESET_B 19.9429 
*END

*D_NET *208 0.000178456
*CONN
*I *2081:RESET_B I *D sky130_fd_sc_hd__dfrtp_2
*I *1970:Y O *D sky130_fd_sc_hd__inv_2
*CAP
1 *2081:RESET_B 8.9228e-05
2 *1970:Y 8.9228e-05
3 *2081:RESET_B *1678:A 0
4 *2081:RESET_B *2181:A 0
5 mem_wdata[7] *2081:RESET_B 0
*RES
1 *1970:Y *2081:RESET_B 19.6393 
*END

*D_NET *209 0.000165796
*CONN
*I *2082:SET_B I *D sky130_fd_sc_hd__dfstp_2
*I *1971:Y O *D sky130_fd_sc_hd__inv_2
*CAP
1 *2082:SET_B 6.42365e-05
2 *1971:Y 6.42365e-05
3 *13:12 *2082:SET_B 3.73228e-05
*RES
1 *1971:Y *2082:SET_B 19.6393 
*END

*D_NET *210 0.000442017
*CONN
*I *2083:RESET_B I *D sky130_fd_sc_hd__dfrtp_2
*I *1972:Y O *D sky130_fd_sc_hd__inv_2
*CAP
1 *2083:RESET_B 0.000130834
2 *1972:Y 0.000130834
3 *2083:RESET_B *1935:A 0.000175418
4 *2083:RESET_B *1972:A 4.93118e-06
*RES
1 *1972:Y *2083:RESET_B 21.0857 
*END

*D_NET *211 0.000615904
*CONN
*I *2084:RESET_B I *D sky130_fd_sc_hd__dfrtp_2
*I *1973:Y O *D sky130_fd_sc_hd__inv_2
*CAP
1 *2084:RESET_B 0.000161952
2 *1973:Y 0.000161952
3 *2084:RESET_B *1616:A 0
4 *2084:RESET_B *1973:A 0.000292
5 *2084:RESET_B *2060:D 0
*RES
1 *1973:Y *2084:RESET_B 22.0679 
*END

*D_NET *212 0.000838778
*CONN
*I *2085:RESET_B I *D sky130_fd_sc_hd__dfrtp_2
*I *1974:Y O *D sky130_fd_sc_hd__inv_2
*CAP
1 *2085:RESET_B 0.000295537
2 *1974:Y 0.000295537
3 *2085:RESET_B *1626:A 5.50052e-05
4 *2085:RESET_B *1626:C 0
5 *2085:RESET_B *1788:A2 0
6 *2085:RESET_B *1974:A 0.000105872
7 *2085:RESET_B *681:32 8.68279e-05
*RES
1 *1974:Y *2085:RESET_B 24.1214 
*END

*D_NET *213 0.00120808
*CONN
*I *2086:RESET_B I *D sky130_fd_sc_hd__dfrtp_2
*I *1975:Y O *D sky130_fd_sc_hd__inv_2
*CAP
1 *2086:RESET_B 0.000436252
2 *1975:Y 0.000436252
3 *2086:RESET_B *1978:A 7.02498e-05
4 *2086:RESET_B *2141:A 4.65855e-05
5 *2086:RESET_B *2230:A 2.16315e-05
6 *2086:RESET_B *445:18 7.69628e-05
7 *2086:RESET_B *535:43 0.000120145
*RES
1 *1975:Y *2086:RESET_B 26.1482 
*END

*D_NET *214 0.000443971
*CONN
*I *2087:SET_B I *D sky130_fd_sc_hd__dfstp_2
*I *1976:Y O *D sky130_fd_sc_hd__inv_2
*CAP
1 *2087:SET_B 4.68622e-05
2 *1976:Y 4.68622e-05
3 *2087:SET_B *411:16 0.000175123
4 *2087:SET_B *680:14 0.000175123
*RES
1 *1976:Y *2087:SET_B 20.55 
*END

*D_NET *215 0.000649554
*CONN
*I *2088:RESET_B I *D sky130_fd_sc_hd__dfrtp_2
*I *1977:Y O *D sky130_fd_sc_hd__inv_2
*CAP
1 *2088:RESET_B 0.000147162
2 *1977:Y 0.000147162
3 *2088:RESET_B *449:12 0.000197787
4 *2088:RESET_B *579:12 6.75007e-05
5 *2088:RESET_B *681:8 8.99419e-05
*RES
1 *1977:Y *2088:RESET_B 22.9786 
*END

*D_NET *216 0.00172725
*CONN
*I *2089:RESET_B I *D sky130_fd_sc_hd__dfrtp_2
*I *1978:Y O *D sky130_fd_sc_hd__inv_2
*CAP
1 *2089:RESET_B 0.000544198
2 *1978:Y 0.000544198
3 *2089:RESET_B *1857:A2 0.000136951
4 *2089:RESET_B *1881:A 0.000101545
5 *2089:RESET_B *1978:A 0.000142147
6 *2089:RESET_B *2240:A 0.000100823
7 *2089:RESET_B *487:8 1.92789e-05
8 *2089:RESET_B *733:8 0.000138106
*RES
1 *1978:Y *2089:RESET_B 27.2196 
*END

*D_NET *217 0.000634889
*CONN
*I *2090:RESET_B I *D sky130_fd_sc_hd__dfrtp_2
*I *1979:Y O *D sky130_fd_sc_hd__inv_2
*CAP
1 *2090:RESET_B 0.000217513
2 *1979:Y 0.000217513
3 *2090:RESET_B *690:75 0.000101859
4 *2059:RESET_B *2090:RESET_B 9.80029e-05
*RES
1 *1979:Y *2090:RESET_B 22.3179 
*END

*D_NET *218 0.00058506
*CONN
*I *2091:RESET_B I *D sky130_fd_sc_hd__dfrtp_2
*I *1980:Y O *D sky130_fd_sc_hd__inv_2
*CAP
1 *2091:RESET_B 0.000132695
2 *1980:Y 0.000132695
3 *2091:RESET_B *1978:A 0.00017001
4 *2091:RESET_B *2085:CLK 4.46854e-05
5 *2091:RESET_B *555:80 0
6 *2091:RESET_B *735:10 0.000104974
*RES
1 *1980:Y *2091:RESET_B 21.4339 
*END

*D_NET *219 0.00016261
*CONN
*I *2092:RESET_B I *D sky130_fd_sc_hd__dfrtp_2
*I *1981:Y O *D sky130_fd_sc_hd__inv_2
*CAP
1 *2092:RESET_B 6.53255e-05
2 *1981:Y 6.53255e-05
3 *2092:RESET_B *1792:B 0
4 *2092:RESET_B *701:57 3.19595e-05
*RES
1 *1981:Y *2092:RESET_B 19.6393 
*END

*D_NET *220 0.000650249
*CONN
*I *2093:RESET_B I *D sky130_fd_sc_hd__dfrtp_2
*I *1982:Y O *D sky130_fd_sc_hd__inv_2
*CAP
1 *2093:RESET_B 0.00024494
2 *1982:Y 0.00024494
3 *2093:RESET_B *1791:B1 0.000148189
4 *2093:RESET_B *1951:A 9.33978e-07
5 *2093:RESET_B *553:34 0
6 *2093:RESET_B *692:46 3.80953e-06
7 *2093:RESET_B *692:59 7.43578e-06
*RES
1 *1982:Y *2093:RESET_B 22.6036 
*END

*D_NET *221 0.000808991
*CONN
*I *2094:SET_B I *D sky130_fd_sc_hd__dfstp_2
*I *1983:Y O *D sky130_fd_sc_hd__inv_2
*CAP
1 *2094:SET_B 0.000134501
2 *1983:Y 0.000134501
3 *2094:SET_B *1797:C1 0.000227021
4 *2094:SET_B *426:43 0.000183726
5 *13:12 *2094:SET_B 0.000129241
*RES
1 *1983:Y *2094:SET_B 22.925 
*END

*D_NET *222 0.00109417
*CONN
*I *2095:RESET_B I *D sky130_fd_sc_hd__dfrtp_2
*I *1984:Y O *D sky130_fd_sc_hd__inv_2
*CAP
1 *2095:RESET_B 0.000256938
2 *1984:Y 0.000256938
3 *2095:RESET_B *2095:CLK 0.000192658
4 *2095:RESET_B *556:82 0.00038764
*RES
1 *1984:Y *2095:RESET_B 16.7732 
*END

*D_NET *223 0.00065192
*CONN
*I *2096:RESET_B I *D sky130_fd_sc_hd__dfrtp_2
*I *1985:Y O *D sky130_fd_sc_hd__inv_2
*CAP
1 *2096:RESET_B 0.000168332
2 *1985:Y 0.000168332
3 *2096:RESET_B *1714:B 0.000173566
4 *2096:RESET_B *1795:A2 0.000141689
*RES
1 *1985:Y *2096:RESET_B 21.9071 
*END

*D_NET *224 0.000486082
*CONN
*I *2097:RESET_B I *D sky130_fd_sc_hd__dfrtp_2
*I *1986:Y O *D sky130_fd_sc_hd__inv_2
*CAP
1 *2097:RESET_B 0.000154067
2 *1986:Y 0.000154067
3 *2097:RESET_B *1986:A 0.000177948
4 *2097:RESET_B *538:76 0
*RES
1 *1986:Y *2097:RESET_B 21.4339 
*END

*D_NET *225 0.000160787
*CONN
*I *2098:RESET_B I *D sky130_fd_sc_hd__dfrtp_2
*I *1987:Y O *D sky130_fd_sc_hd__inv_2
*CAP
1 *2098:RESET_B 6.14201e-05
2 *1987:Y 6.14201e-05
3 *2098:RESET_B *348:20 3.79467e-05
4 *2098:RESET_B *694:27 0
*RES
1 *1987:Y *2098:RESET_B 19.6393 
*END

*D_NET *226 0.000214261
*CONN
*I *2099:RESET_B I *D sky130_fd_sc_hd__dfrtp_2
*I *1988:Y O *D sky130_fd_sc_hd__inv_2
*CAP
1 *2099:RESET_B 3.85309e-05
2 *1988:Y 3.85309e-05
3 *2099:RESET_B *1988:A 0.000103437
4 *2099:RESET_B *731:109 3.37618e-05
*RES
1 *1988:Y *2099:RESET_B 19.6393 
*END

*D_NET *227 0.000401553
*CONN
*I *2100:RESET_B I *D sky130_fd_sc_hd__dfrtp_2
*I *1989:Y O *D sky130_fd_sc_hd__inv_2
*CAP
1 *2100:RESET_B 0.000134971
2 *1989:Y 0.000134971
3 *2100:RESET_B *1989:A 3.67279e-06
4 *2100:RESET_B *550:36 0.000127939
*RES
1 *1989:Y *2100:RESET_B 21.1929 
*END

*D_NET *228 0.000381792
*CONN
*I *2101:SET_B I *D sky130_fd_sc_hd__dfstp_2
*I *1990:Y O *D sky130_fd_sc_hd__inv_2
*CAP
1 *2101:SET_B 0.000175042
2 *1990:Y 0.000175042
3 *2101:SET_B *535:209 0
4 *2101:SET_B *539:10 0
5 *2101:SET_B *539:18 0
6 *2101:D *2101:SET_B 3.17067e-05
*RES
1 *1990:Y *2101:SET_B 21.1571 
*END

*D_NET *229 0.000163546
*CONN
*I *2102:SET_B I *D sky130_fd_sc_hd__dfstp_2
*I *1991:Y O *D sky130_fd_sc_hd__inv_2
*CAP
1 *2102:SET_B 8.1773e-05
2 *1991:Y 8.1773e-05
3 *2102:SET_B *539:18 0
*RES
1 *1991:Y *2102:SET_B 19.6393 
*END

*D_NET *230 0.00102344
*CONN
*I *2103:RESET_B I *D sky130_fd_sc_hd__dfrtp_2
*I *1992:Y O *D sky130_fd_sc_hd__inv_2
*CAP
1 *2103:RESET_B 0.000325142
2 *1992:Y 0.000325142
3 *2103:RESET_B *1621:B1 0
4 *2103:RESET_B *1622:B 0
5 *2103:RESET_B *1992:A 2.28598e-05
6 *2103:RESET_B *2159:A 4.06782e-05
7 *2103:RESET_B *2160:A 0
8 *2103:RESET_B *337:12 0.000247771
9 *2103:RESET_B *539:24 0
10 *2103:RESET_B *539:35 0
11 *2103:RESET_B *684:40 6.05161e-06
12 *2103:RESET_B *688:27 5.57914e-05
*RES
1 *1992:Y *2103:RESET_B 25.3357 
*END

*D_NET *231 0.000512281
*CONN
*I *2104:RESET_B I *D sky130_fd_sc_hd__dfrtp_2
*I *1993:Y O *D sky130_fd_sc_hd__inv_2
*CAP
1 *2104:RESET_B 0.000151161
2 *1993:Y 0.000151161
3 *2104:RESET_B *2104:CLK 2.51837e-05
4 *2104:RESET_B *535:209 0
5 *2104:RESET_B *539:24 5.66157e-05
6 *2104:RESET_B *539:35 0.000128161
*RES
1 *1993:Y *2104:RESET_B 21.4339 
*END

*D_NET *232 0.000733857
*CONN
*I *2105:RESET_B I *D sky130_fd_sc_hd__dfrtp_2
*I *1994:Y O *D sky130_fd_sc_hd__inv_2
*CAP
1 *2105:RESET_B 0.000338851
2 *1994:Y 0.000338851
3 *2105:RESET_B *2105:CLK 0
4 *2105:RESET_B *2195:A 2.29031e-05
5 *2105:RESET_B *2220:A 3.32523e-05
*RES
1 *1994:Y *2105:RESET_B 24.4964 
*END

*D_NET *233 0.000935188
*CONN
*I *2106:RESET_B I *D sky130_fd_sc_hd__dfrtp_2
*I *1995:Y O *D sky130_fd_sc_hd__inv_2
*CAP
1 *2106:RESET_B 0.000358812
2 *1995:Y 0.000358812
3 *2106:RESET_B *2219:A 0.000185124
4 *2106:RESET_B *747:6 3.24395e-05
*RES
1 *1995:Y *2106:RESET_B 15.1125 
*END

*D_NET *234 0.000727792
*CONN
*I *2107:RESET_B I *D sky130_fd_sc_hd__dfrtp_2
*I *1996:Y O *D sky130_fd_sc_hd__inv_2
*CAP
1 *2107:RESET_B 0.000170043
2 *1996:Y 0.000170043
3 *2107:RESET_B *1651:D 2.59355e-05
4 *2107:RESET_B *685:51 1.46231e-05
5 *2107:RESET_B *687:36 0.000174332
6 *2107:RESET_B *748:21 0.000172815
*RES
1 *1996:Y *2107:RESET_B 21.9696 
*END

*D_NET *235 0.000794592
*CONN
*I *2108:RESET_B I *D sky130_fd_sc_hd__dfrtp_2
*I *1997:Y O *D sky130_fd_sc_hd__inv_2
*CAP
1 *2108:RESET_B 0.000167531
2 *1997:Y 0.000167531
3 *2108:RESET_B *1619:A 0.000100823
4 *2108:RESET_B *2109:CLK 4.87854e-05
5 *2108:RESET_B *549:40 0.000100823
6 *2108:RESET_B *749:8 0.000183713
7 *2108:D *2108:RESET_B 2.5385e-05
*RES
1 *1997:Y *2108:RESET_B 22.5768 
*END

*D_NET *236 0.000580674
*CONN
*I *2109:RESET_B I *D sky130_fd_sc_hd__dfrtp_2
*I *1998:Y O *D sky130_fd_sc_hd__inv_2
*CAP
1 *2109:RESET_B 0.000157709
2 *1998:Y 0.000157709
3 *2109:RESET_B *1998:A 0.000228514
4 *2109:RESET_B *2121:D 3.67419e-05
*RES
1 *1998:Y *2109:RESET_B 12.2375 
*END

*D_NET *237 0.000719116
*CONN
*I *2110:RESET_B I *D sky130_fd_sc_hd__dfrtp_2
*I *1999:Y O *D sky130_fd_sc_hd__inv_2
*CAP
1 *2110:RESET_B 0.000225091
2 *1999:Y 0.000225091
3 *2110:RESET_B *1928:A_N 0.00014211
4 *2110:RESET_B *1928:B 9.83673e-05
5 *2110:RESET_B *1999:A 0
6 *2110:RESET_B *773:20 2.8456e-05
*RES
1 *1999:Y *2110:RESET_B 21.8179 
*END

*D_NET *238 0.000292134
*CONN
*I *2111:RESET_B I *D sky130_fd_sc_hd__dfrtp_2
*I *2000:Y O *D sky130_fd_sc_hd__inv_2
*CAP
1 *2111:RESET_B 0.000100279
2 *2000:Y 0.000100279
3 *2111:RESET_B *2001:A 8.4316e-05
4 *2111:RESET_B *700:84 7.25873e-06
*RES
1 *2000:Y *2111:RESET_B 20.175 
*END

*D_NET *239 0.00110967
*CONN
*I *2112:RESET_B I *D sky130_fd_sc_hd__dfrtp_2
*I *2001:Y O *D sky130_fd_sc_hd__inv_2
*CAP
1 *2112:RESET_B 0.000258015
2 *2001:Y 0.000258015
3 *2112:RESET_B *1814:A1 0.000227014
4 *2112:RESET_B *2001:A 0.000103737
5 *2112:RESET_B *752:84 0.000262888
*RES
1 *2001:Y *2112:RESET_B 25.9429 
*END

*D_NET *240 0.000433118
*CONN
*I *2113:RESET_B I *D sky130_fd_sc_hd__dfrtp_2
*I *2002:Y O *D sky130_fd_sc_hd__inv_2
*CAP
1 *2113:RESET_B 0.000137078
2 *2002:Y 0.000137078
3 *2113:RESET_B *1660:A 0
4 *2113:RESET_B *371:6 1.07719e-05
5 *2113:RESET_B *673:10 0.000148189
*RES
1 *2002:Y *2113:RESET_B 20.7821 
*END

*D_NET *241 0.00149758
*CONN
*I *2114:RESET_B I *D sky130_fd_sc_hd__dfrtp_2
*I *2003:Y O *D sky130_fd_sc_hd__inv_2
*CAP
1 *2114:RESET_B 0.000345882
2 *2003:Y 0.000345882
3 *2114:RESET_B *1825:C 1.78353e-05
4 *2114:RESET_B *2114:CLK 0.000339262
5 *2114:RESET_B *535:290 7.02611e-05
6 *2114:RESET_B *685:28 0.000224243
7 *2114:RESET_B *685:41 3.51442e-05
8 *2114:D *2114:RESET_B 0.000119065
*RES
1 *2003:Y *2114:RESET_B 26.5768 
*END

*D_NET *242 0.000663226
*CONN
*I *2115:RESET_B I *D sky130_fd_sc_hd__dfrtp_2
*I *2004:Y O *D sky130_fd_sc_hd__inv_2
*CAP
1 *2115:RESET_B 0.00023489
2 *2004:Y 0.00023489
3 *2115:RESET_B *535:233 0
4 *2115:RESET_B *696:38 0.000193447
*RES
1 *2004:Y *2115:RESET_B 22.9786 
*END

*D_NET *243 0.000382996
*CONN
*I *2116:RESET_B I *D sky130_fd_sc_hd__dfrtp_2
*I *2005:Y O *D sky130_fd_sc_hd__inv_2
*CAP
1 *2116:RESET_B 0.000144348
2 *2005:Y 0.000144348
3 *2116:RESET_B *696:38 5.50052e-05
4 *2116:RESET_B *742:8 3.92952e-05
*RES
1 *2005:Y *2116:RESET_B 11.8268 
*END

*D_NET *244 0.000930892
*CONN
*I *2117:RESET_B I *D sky130_fd_sc_hd__dfrtp_2
*I *2006:Y O *D sky130_fd_sc_hd__inv_2
*CAP
1 *2117:RESET_B 0.00023915
2 *2006:Y 0.00023915
3 *2117:RESET_B *1655:C 1.78393e-05
4 *2117:RESET_B *1825:A 0.000102296
5 *2117:RESET_B *2006:A 2.59355e-05
6 *2117:RESET_B *535:290 1.15281e-05
7 *2117:RESET_B *743:21 5.85816e-05
8 *2117:RESET_B *743:32 6.39889e-05
9 *2117:D *2117:RESET_B 0.000172422
*RES
1 *2006:Y *2117:RESET_B 23.925 
*END

*D_NET *245 0.000389311
*CONN
*I *2118:RESET_B I *D sky130_fd_sc_hd__dfrtp_2
*I *2007:Y O *D sky130_fd_sc_hd__inv_2
*CAP
1 *2118:RESET_B 0.000166525
2 *2007:Y 0.000166525
3 *2118:RESET_B *1655:C 1.25672e-06
4 *2118:RESET_B *2007:A 5.50052e-05
*RES
1 *2007:Y *2118:RESET_B 11.8268 
*END

*D_NET *246 0.00113707
*CONN
*I *2119:RESET_B I *D sky130_fd_sc_hd__dfrtp_2
*I *2008:Y O *D sky130_fd_sc_hd__inv_2
*CAP
1 *2119:RESET_B 0.000336768
2 *2008:Y 0.000336768
3 *2119:RESET_B *2009:A 0.000101859
4 *2119:RESET_B *2120:RESET_B 0.000361673
*RES
1 *2008:Y *2119:RESET_B 24.7464 
*END

*D_NET *247 0.000936257
*CONN
*I *2120:RESET_B I *D sky130_fd_sc_hd__dfrtp_2
*I *2009:Y O *D sky130_fd_sc_hd__inv_2
*CAP
1 *2120:RESET_B 0.000287292
2 *2009:Y 0.000287292
3 *2120:RESET_B *1830:B 0
4 *2120:RESET_B *2158:A 0
5 *2120:RESET_B *688:60 0
6 *2119:RESET_B *2120:RESET_B 0.000361673
*RES
1 *2009:Y *2120:RESET_B 24.4964 
*END

*D_NET *248 0.00348679
*CONN
*I *2121:SET_B I *D sky130_fd_sc_hd__dfstp_2
*I *2010:Y O *D sky130_fd_sc_hd__inv_2
*CAP
1 *2121:SET_B 0.00117253
2 *2010:Y 0.00117253
3 *2121:SET_B *1650:A 1.03761e-05
4 *2121:SET_B *1650:B 0
5 *2121:SET_B *1811:B 5.50052e-05
6 *2121:SET_B *1925:A1 4.87868e-05
7 *2121:SET_B *1925:A3 0.000192666
8 *2121:SET_B *1928:A_N 0.000357271
9 *2121:SET_B *1930:A1 1.15359e-05
10 *2121:SET_B *1931:C 8.71759e-05
11 *2121:SET_B *2010:A 0.000304002
12 *2121:SET_B *361:12 1.62812e-05
13 *2121:SET_B *527:38 1.00887e-05
14 *2121:SET_B *549:55 4.85451e-05
*RES
1 *2010:Y *2121:SET_B 35.9339 
*END

*D_NET *249 0.00425622
*CONN
*I *2122:SET_B I *D sky130_fd_sc_hd__dfstp_2
*I *2011:Y O *D sky130_fd_sc_hd__inv_2
*CAP
1 *2122:SET_B 0.00126938
2 *2011:Y 0.00126938
3 *2122:SET_B *1919:A2 8.37178e-05
4 *2122:SET_B *1919:B1 9.22052e-06
5 *2122:SET_B *1924:B1 5.50052e-05
6 *2122:SET_B *1925:B1 0.000257047
7 *2122:SET_B *1926:A 0.000705016
8 *2122:SET_B *2288:A 0.000308531
9 *2122:SET_B *278:22 7.52065e-05
10 *2122:SET_B *527:30 4.54244e-05
11 *2122:SET_B *527:38 2.48703e-05
12 Hsync *2122:SET_B 9.84729e-05
13 *1922:A *2122:SET_B 5.49544e-05
*RES
1 *2011:Y *2122:SET_B 39.8446 
*END

*D_NET *250 0.000515701
*CONN
*I *2012:D I *D sky130_fd_sc_hd__dfrtp_2
*I *1773:X O *D sky130_fd_sc_hd__and2_2
*CAP
1 *2012:D 0.000225093
2 *1773:X 0.000225093
3 *2012:D *1773:A 3.69047e-06
4 *2012:D *1788:B1 4.55532e-05
5 *2012:D *555:31 1.6271e-05
*RES
1 *1773:X *2012:D 30.7071 
*END

*D_NET *251 0.000511219
*CONN
*I *2017:D I *D sky130_fd_sc_hd__dfxtp_2
*I *1845:X O *D sky130_fd_sc_hd__o21a_2
*CAP
1 *2017:D 0.000150827
2 *1845:X 0.000150827
3 *2017:D *1846:B1 5.71472e-05
4 *2017:D *1851:C 1.6815e-05
5 *2017:D *1855:A2 1.64343e-05
6 *2017:D *481:14 0.000102734
7 *2017:D *536:20 1.64343e-05
8 *2017:D *678:28 0
*RES
1 *1845:X *2017:D 30.5509 
*END

*D_NET *252 0.000520798
*CONN
*I *2018:D I *D sky130_fd_sc_hd__dfxtp_2
*I *1848:Y O *D sky130_fd_sc_hd__nor2_2
*CAP
1 *2018:D 9.0798e-05
2 *1848:Y 9.0798e-05
3 *2018:D *1848:A 7.6032e-05
4 *2018:D *2018:CLK 0.00012443
5 *2018:D *479:18 0.00013874
*RES
1 *1848:Y *2018:D 22.2786 
*END

*D_NET *253 0.000230992
*CONN
*I *2019:D I *D sky130_fd_sc_hd__dfxtp_2
*I *1851:Y O *D sky130_fd_sc_hd__nor3_2
*CAP
1 *2019:D 5.58805e-05
2 *1851:Y 5.58805e-05
3 *2019:D *1851:B 4.79864e-05
4 *2019:D *1851:C 5.01234e-05
5 *2019:D *1854:A 4.68707e-06
6 *2019:D *484:12 1.64343e-05
*RES
1 *1851:Y *2019:D 29.1045 
*END

*D_NET *254 0.005464
*CONN
*I *2020:D I *D sky130_fd_sc_hd__dfxtp_2
*I *1855:X O *D sky130_fd_sc_hd__o21a_2
*CAP
1 *2020:D 0
2 *1855:X 0.00131005
3 *254:14 0.00131005
4 *254:14 *1710:A2 0.00018077
5 *254:14 *1710:B1_N 9.41642e-05
6 *254:14 *1852:B 9.41642e-05
7 *254:14 *1852:D 0.000492333
8 *254:14 *1855:A1 0.000495285
9 *254:14 *1855:A2 6.05161e-06
10 *254:14 *2020:CLK 8.58712e-05
11 *254:14 *2156:A 4.5447e-05
12 *254:14 *2286:A 8.76257e-05
13 *254:14 *2294:A 0.000110849
14 *254:14 *479:18 3.2923e-05
15 *254:14 *484:12 0.000190636
16 *254:14 *659:14 0.00018372
17 *254:14 *662:60 9.60939e-05
18 *254:14 *665:6 2.92429e-05
19 *254:14 *666:16 9.21488e-05
20 *254:14 *666:22 7.49387e-06
21 *254:14 *677:10 0.000174682
22 *254:14 *677:27 0.000234297
23 *254:14 *705:22 0.000110107
*RES
1 *1855:X *254:14 48.358 
2 *254:14 *2020:D 9.3 
*END

*D_NET *255 0.000304115
*CONN
*I *2021:D I *D sky130_fd_sc_hd__dfxtp_2
*I *1857:X O *D sky130_fd_sc_hd__o21a_2
*CAP
1 *2021:D 3.91268e-05
2 *1857:X 3.91268e-05
3 *2021:D *1863:A1 0.000104974
4 *2021:D *1865:C 1.76204e-05
5 *2021:D *491:23 0.000103267
*RES
1 *1857:X *2021:D 29.1045 
*END

*D_NET *256 0.000370667
*CONN
*I *2022:D I *D sky130_fd_sc_hd__dfxtp_2
*I *1860:Y O *D sky130_fd_sc_hd__nor3_2
*CAP
1 *2022:D 7.25785e-05
2 *1860:Y 7.25785e-05
3 *2022:D *1860:C 1.02936e-05
4 *2022:D *1867:C 0.000154227
5 *2022:D *2022:CLK 6.09899e-05
*RES
1 *1860:Y *2022:D 20.8321 
*END

*D_NET *257 0.00277993
*CONN
*I *2023:D I *D sky130_fd_sc_hd__dfxtp_2
*I *1863:X O *D sky130_fd_sc_hd__o21a_2
*CAP
1 *2023:D 0.000857641
2 *1863:X 0.000857641
3 *2023:D *1863:A1 0.000285383
4 *2023:D *1863:A2 0.000181803
5 *2023:D *1865:A 9.41642e-05
6 *2023:D *1865:C 0.000336095
7 *2023:D *1865:D 3.97677e-05
8 *2023:D *2021:CLK 8.43535e-06
9 *2023:D *2140:A 0.00010326
10 *2023:D *482:34 0
11 *2023:D *495:26 1.57414e-05
*RES
1 *1863:X *2023:D 40.8143 
*END

*D_NET *258 0.00160583
*CONN
*I *2024:D I *D sky130_fd_sc_hd__dfxtp_2
*I *1867:Y O *D sky130_fd_sc_hd__nor3_2
*CAP
1 *2024:D 0.000577778
2 *1867:Y 0.000577778
3 *2024:D *1860:A 0.000127246
4 *2024:D *1861:A 0.000172085
5 *2024:D *1864:A 0
6 *2024:D *1864:B 0
7 *2024:D *1865:A 0
8 *2024:D *2022:CLK 0
9 *2024:D *2296:A 4.96583e-06
10 *2024:D *543:16 0.000145973
11 *2024:D *543:66 0
12 *2024:D *668:12 0
13 *2024:D *669:10 0
*RES
1 *1867:Y *2024:D 38.8902 
*END

*D_NET *259 0.00288062
*CONN
*I *2025:D I *D sky130_fd_sc_hd__dfxtp_2
*I *1869:Y O *D sky130_fd_sc_hd__a21oi_2
*CAP
1 *2025:D 0.000860667
2 *1869:Y 0.000860667
3 *2025:D *1874:A 0.000345326
4 *2025:D *1876:A1 0.000137515
5 *2025:D *1876:B1 9.86146e-05
6 *2025:D *1878:B 5.33005e-05
7 *2025:D *1883:A2 0.000175512
8 *2025:D *1888:A 7.32955e-05
9 *2025:D *2200:A 0
10 *2025:D *2267:A 0.000102549
11 *2025:D *496:54 0.000155329
12 *2025:D *499:12 0
13 *2025:D *703:10 0
14 *169:26 *2025:D 1.78465e-05
*RES
1 *1869:Y *2025:D 45.6937 
*END

*D_NET *260 0.000996781
*CONN
*I *2026:D I *D sky130_fd_sc_hd__dfxtp_2
*I *1872:Y O *D sky130_fd_sc_hd__nor3_2
*CAP
1 *2026:D 0.000331684
2 *1872:Y 0.000331684
3 *2026:D *1875:A2 0.000333413
*RES
1 *1872:Y *2026:D 33.783 
*END

*D_NET *261 0.00139935
*CONN
*I *2027:D I *D sky130_fd_sc_hd__dfxtp_2
*I *1875:X O *D sky130_fd_sc_hd__o211a_2
*CAP
1 *2027:D 0.00032023
2 *1875:X 0.00032023
3 *2027:D *1875:A1 8.31882e-05
4 *2027:D *1875:B1 0.000309598
5 *2027:D *2028:CLK 0.000143447
6 *2027:D *2298:A 3.46742e-05
7 *2027:D *543:37 0
8 *2027:D *686:12 0.000187986
*RES
1 *1875:X *2027:D 35.158 
*END

*D_NET *262 0.00110249
*CONN
*I *2028:D I *D sky130_fd_sc_hd__dfxtp_2
*I *1878:Y O *D sky130_fd_sc_hd__nor3_2
*CAP
1 *2028:D 0.000184746
2 *1878:Y 0.000184746
3 *2028:D *1874:B 9.82585e-06
4 *2028:D *1878:B 0.000200413
5 *2028:D *1878:C 9.87672e-05
6 *2028:D *2267:A 0.000139631
7 *2028:D *496:26 8.56654e-05
8 *2028:D *496:54 0.000198698
*RES
1 *1878:Y *2028:D 33.3187 
*END

*D_NET *263 0.00118154
*CONN
*I *2029:D I *D sky130_fd_sc_hd__dfxtp_2
*I *1883:X O *D sky130_fd_sc_hd__o211a_2
*CAP
1 *2029:D 0.000336023
2 *1883:X 0.000336023
3 *2029:D *1883:A1 5.52238e-05
4 *2029:D *1883:B1 1.02936e-05
5 *2029:D *2208:A 9.15291e-05
6 *2029:D *492:79 0.00018077
7 *2029:D *496:22 0.000128161
8 *2029:D *504:19 4.35141e-05
*RES
1 *1883:X *2029:D 34.4616 
*END

*D_NET *264 0.0036538
*CONN
*I *2030:D I *D sky130_fd_sc_hd__dfxtp_2
*I *1886:Y O *D sky130_fd_sc_hd__nor2_2
*CAP
1 *2030:D 0.00102228
2 *1886:Y 0.00102228
3 *2030:D *1871:B 0.000448049
4 *2030:D *1879:B 7.16384e-05
5 *2030:D *1886:B 0.000921366
6 *2030:D *1978:A 1.74352e-05
7 *2030:D *492:43 4.40809e-05
8 *2030:D *501:14 5.338e-05
9 *2030:D *686:37 5.33005e-05
*RES
1 *1886:Y *2030:D 45.8009 
*END

*D_NET *265 0.00105789
*CONN
*I *2031:D I *D sky130_fd_sc_hd__dfxtp_2
*I *1889:X O *D sky130_fd_sc_hd__o21a_2
*CAP
1 *2031:D 0.000321631
2 *1889:X 0.000321631
3 *2031:D *1889:B1 0.000398815
4 *2031:D *560:8 1.58163e-05
*RES
1 *1889:X *2031:D 25.3366 
*END

*D_NET *266 0.00041224
*CONN
*I *2032:D I *D sky130_fd_sc_hd__dfxtp_2
*I *1892:Y O *D sky130_fd_sc_hd__nor3_2
*CAP
1 *2032:D 9.64152e-05
2 *1892:Y 9.64152e-05
3 *2032:D *1892:A 9.91086e-05
4 *2032:D *1892:B 3.0285e-05
5 *2032:D *1896:D 1.64343e-05
6 *2032:D *2032:CLK 1.64343e-05
7 *2032:D *2158:A 5.71472e-05
*RES
1 *1892:Y *2032:D 29.6402 
*END

*D_NET *267 0.000364677
*CONN
*I *2033:D I *D sky130_fd_sc_hd__dfxtp_2
*I *1894:X O *D sky130_fd_sc_hd__o21ba_2
*CAP
1 *2033:D 0.00012819
2 *1894:X 0.00012819
3 *2033:D *1892:B 3.32132e-06
4 *2033:D *1896:A 0.000104974
5 *2033:D *682:21 0
*RES
1 *1894:X *2033:D 29.9259 
*END

*D_NET *268 0.000922558
*CONN
*I *2034:D I *D sky130_fd_sc_hd__dfxtp_2
*I *1897:Y O *D sky130_fd_sc_hd__nor3_2
*CAP
1 *2034:D 0.000237448
2 *1897:Y 0.000237448
3 *2034:D *1895:A1 3.14048e-05
4 *2034:D *1895:A2 3.29354e-05
5 *2034:D *2256:A 5.83304e-05
6 *2034:D *562:40 5.83304e-05
7 *2034:D *682:42 4.71974e-05
8 *2034:D *682:44 0.000219464
*RES
1 *1897:Y *2034:D 32.8679 
*END

*D_NET *269 0.00129958
*CONN
*I *2035:D I *D sky130_fd_sc_hd__dfxtp_2
*I *1899:X O *D sky130_fd_sc_hd__o21a_2
*CAP
1 *2035:D 0.000275929
2 *1899:X 0.000275929
3 *2035:D *1898:B1 0
4 *2035:D *1899:A2 7.79781e-06
5 *2035:D *1899:B1 5.56943e-05
6 *2035:D *2025:CLK 0.000496256
7 *2035:D *512:14 7.35679e-05
8 *2035:D *546:16 5.71124e-05
9 *2035:D *564:48 5.7298e-05
*RES
1 *1899:X *2035:D 35.283 
*END

*D_NET *270 0.000439184
*CONN
*I *2036:D I *D sky130_fd_sc_hd__dfxtp_2
*I *1902:Y O *D sky130_fd_sc_hd__nor3_2
*CAP
1 *2036:D 0.000151071
2 *1902:Y 0.000151071
3 *2036:D *1902:C 0.000129044
4 *2036:D *2036:CLK 7.99677e-06
*RES
1 *1902:Y *2036:D 29.9438 
*END

*D_NET *271 0.00117828
*CONN
*I *2037:D I *D sky130_fd_sc_hd__dfxtp_2
*I *1905:X O *D sky130_fd_sc_hd__o21a_2
*CAP
1 *2037:D 0.000316396
2 *1905:X 0.000316396
3 *2037:D *1905:B1 0.000310612
4 *2037:D *516:14 0.000185403
5 *2037:D *535:337 4.94761e-05
*RES
1 *1905:X *2037:D 25.158 
*END

*D_NET *272 0.00362191
*CONN
*I *2038:D I *D sky130_fd_sc_hd__dfxtp_2
*I *1907:X O *D sky130_fd_sc_hd__o21a_2
*CAP
1 *2038:D 0.000853142
2 *1907:X 0.000853142
3 *2038:D *1906:B1 0.000559589
4 *2038:D *1907:B1 9.80435e-05
5 *2038:D *1912:B 0
6 *2038:D *1913:A2 0.000387439
7 *2038:D *1914:B1 6.69871e-05
8 *2038:D *1916:A1 7.29712e-05
9 *2038:D *547:8 6.74911e-05
10 *2038:D *547:19 0.00010923
11 *2038:D *547:30 0.000100018
12 *2038:D *547:39 0.00010974
13 *2038:D *547:52 2.49225e-05
14 *2038:D *591:10 7.74186e-05
15 *169:18 *2038:D 0.000241775
*RES
1 *1907:X *2038:D 47.783 
*END

*D_NET *273 0.00124537
*CONN
*I *2039:D I *D sky130_fd_sc_hd__dfxtp_2
*I *1910:Y O *D sky130_fd_sc_hd__nor3_2
*CAP
1 *2039:D 0.000377059
2 *1910:Y 0.000377059
3 *2039:D *1910:A 0.000102362
4 *2039:D *1911:A 0.000224641
5 *2039:D *2039:CLK 8.93347e-05
6 *2039:D *2273:A 0
7 *2039:D *546:79 0
8 pcRegister[22] *2039:D 7.49104e-05
*RES
1 *1910:Y *2039:D 35.6536 
*END

*D_NET *274 0.00351874
*CONN
*I *2040:D I *D sky130_fd_sc_hd__dfxtp_2
*I *1913:X O *D sky130_fd_sc_hd__o21a_2
*CAP
1 *2040:D 0.00144036
2 *1913:X 0.00144036
3 *2040:D *1910:C 3.0778e-05
4 *2040:D *2040:CLK 9.11048e-06
5 *2040:D *2276:A 9.05528e-05
6 *2040:D *522:16 0.000164937
7 *2040:D *591:42 1.00133e-05
8 *2040:D *685:51 8.00806e-05
9 *2040:D *688:60 3.65015e-05
10 *2040:D *740:44 0.000164633
11 red[0] *2040:D 0
12 red[4] *2040:D 5.14211e-05
*RES
1 *1913:X *2040:D 42.923 
*END

*D_NET *275 0.00118644
*CONN
*I *2041:D I *D sky130_fd_sc_hd__dfxtp_2
*I *1915:X O *D sky130_fd_sc_hd__o21a_2
*CAP
1 *2041:D 0.000231879
2 *1915:X 0.000231879
3 *2041:D *1907:A1 0.000109671
4 *2041:D *1913:A1 0.00031134
5 *2041:D *1915:B1 0.000159687
6 *2041:D *516:42 0.000141981
*RES
1 *1915:X *2041:D 34.408 
*END

*D_NET *276 0.00164429
*CONN
*I *2042:D I *D sky130_fd_sc_hd__dfxtp_2
*I *1918:Y O *D sky130_fd_sc_hd__nor2_2
*CAP
1 *2042:D 0.000339737
2 *1918:Y 0.000339737
3 *2042:D *1912:B 0.000292693
4 *2042:D *1918:B 0.000110272
5 *2042:D *2042:CLK 5.03772e-05
6 *2042:D *2206:A 7.43578e-06
7 *2042:D *2279:A 2.6949e-05
8 *2042:D *547:30 0.000148196
9 *2042:D *547:39 0.000234672
10 *2042:D *547:52 9.07841e-05
11 *2042:D *625:39 3.4323e-06
*RES
1 *1918:Y *2042:D 36.2473 
*END

*D_NET *277 0.00162366
*CONN
*I *2043:D I *D sky130_fd_sc_hd__dfxtp_2
*I *1922:X O *D sky130_fd_sc_hd__and3_2
*CAP
1 *2043:D 0.000633433
2 *1922:X 0.000633433
3 *2043:D *1607:A 0
4 *2043:D *1922:B 3.2923e-05
5 *2043:D *1922:C 1.07719e-05
6 *2043:D *2043:CLK 8.89117e-05
7 *2043:D *2278:A 0
8 *2043:D *2284:A 0
9 *2043:D *323:18 9.82592e-05
10 pcRegister[27] *2043:D 0
11 pcRegister[28] *2043:D 0.000125928
12 pcRegister[31] *2043:D 0
*RES
1 *1922:X *2043:D 39.7071 
*END

*D_NET *278 0.00328474
*CONN
*I *2044:D I *D sky130_fd_sc_hd__dfxtp_2
*I *1924:Y O *D sky130_fd_sc_hd__a21oi_2
*CAP
1 *2044:D 0
2 *1924:Y 0.000837887
3 *278:22 0.000837887
4 *278:22 *1916:A2 1.35465e-05
5 *278:22 *1918:A 0.000343662
6 *278:22 *1919:A2 0.000166151
7 *278:22 *1923:B1 0.000117137
8 *278:22 *1925:B1 1.31942e-05
9 *278:22 *1926:A 8.53787e-05
10 *278:22 *1929:D 0.000111873
11 *278:22 *2011:A 3.29297e-05
12 *278:22 *2044:CLK 5.80325e-05
13 *278:22 *2285:A 2.13481e-06
14 *278:22 *323:18 7.87469e-05
15 *278:22 *527:23 2.16573e-05
16 *278:22 *547:71 8.35129e-05
17 *278:22 *658:21 0.000126968
18 *278:22 *658:36 0.000226202
19 red[1] *278:22 1.10169e-05
20 *1922:A *278:22 4.16129e-05
21 *2122:SET_B *278:22 7.52065e-05
*RES
1 *1924:Y *278:22 42.3223 
2 *278:22 *2044:D 9.3 
*END

*D_NET *279 0.00622834
*CONN
*I *2045:D I *D sky130_fd_sc_hd__dfxtp_2
*I *1928:X O *D sky130_fd_sc_hd__and2b_2
*CAP
1 *2045:D 0.00247477
2 *1928:X 0.00247477
3 *2045:D *1919:A2 0.000126136
4 *2045:D *1922:C 0.00037167
5 *2045:D *1925:B1 0.000272539
6 *2045:D *1928:B 5.41393e-05
7 *2045:D *2277:A 1.90936e-05
8 *2045:D *2285:A 0.000100037
9 *2045:D *547:71 0.00017237
10 green[0] *2045:D 1.04953e-06
11 pcRegister[31] *2045:D 5.74499e-06
12 red[3] *2045:D 0
13 red[5] *2045:D 7.21978e-05
14 *1922:A *2045:D 8.38205e-05
*RES
1 *1928:X *2045:D 45.5244 
*END

*D_NET *280 0.000416252
*CONN
*I *2046:D I *D sky130_fd_sc_hd__dfxtp_2
*I *1931:X O *D sky130_fd_sc_hd__and3_2
*CAP
1 *2046:D 5.7734e-05
2 *1931:X 5.7734e-05
3 *2046:D *658:36 0.000168165
4 *169:79 *2046:D 0.00013262
*RES
1 *1931:X *2046:D 20.658 
*END

*D_NET *281 0.000474837
*CONN
*I *2047:D I *D sky130_fd_sc_hd__dfrtp_2
*I *1768:X O *D sky130_fd_sc_hd__o21a_2
*CAP
1 *2047:D 0.000134189
2 *1768:X 0.000134189
3 *2047:D *1768:A1 2.44318e-05
4 *2047:D *1768:A2 0.000182027
5 *2047:D *434:12 0
*RES
1 *1768:X *2047:D 30.1893 
*END

*D_NET *282 0.000236614
*CONN
*I *2048:D I *D sky130_fd_sc_hd__dfrtp_2
*I *1752:X O *D sky130_fd_sc_hd__o21a_2
*CAP
1 *2048:D 6.77178e-05
2 *1752:X 6.77178e-05
3 *2048:D *433:20 0.000101178
*RES
1 *1752:X *2048:D 28.9393 
*END

*D_NET *283 0.000539176
*CONN
*I *2049:D I *D sky130_fd_sc_hd__dfrtp_2
*I *1767:X O *D sky130_fd_sc_hd__o21a_2
*CAP
1 *2049:D 0.00015923
2 *1767:X 0.00015923
3 *2049:D *1767:A2 3.85645e-05
4 *2049:D *2049:CLK 4.04221e-05
5 *2049:D *701:24 0.000141729
*RES
1 *1767:X *2049:D 30.6 
*END

*D_NET *284 0.00175453
*CONN
*I *2050:D I *D sky130_fd_sc_hd__dfrtp_2
*I *1766:Y O *D sky130_fd_sc_hd__a21boi_2
*CAP
1 *2050:D 0.000383009
2 *1766:Y 0.000383009
3 *2050:D *1766:B1_N 9.77423e-05
4 *2050:D *427:32 0.000117627
5 *2050:D *556:12 0.000254414
6 *2050:D *690:54 0.000183157
7 *2050:D *690:75 0.000187046
8 *2050:D *694:118 0.00014852
*RES
1 *1766:Y *2050:D 38.1714 
*END

*D_NET *285 0.00028092
*CONN
*I *2051:D I *D sky130_fd_sc_hd__dfrtp_2
*I *1764:X O *D sky130_fd_sc_hd__and2_2
*CAP
1 *2051:D 9.47973e-05
2 *1764:X 9.47973e-05
3 *2051:D *550:12 3.79467e-05
4 *2051:D *731:124 5.33786e-05
*RES
1 *1764:X *2051:D 29.475 
*END

*D_NET *286 0.000473901
*CONN
*I *2052:D I *D sky130_fd_sc_hd__dfrtp_2
*I *1763:X O *D sky130_fd_sc_hd__a22o_2
*CAP
1 *2052:D 0.000111604
2 *1763:X 0.000111604
3 *2052:D *1763:A1 5.33334e-05
4 *2052:D *1763:B2 0.000129868
5 *2052:D *731:124 6.74911e-05
*RES
1 *1763:X *2052:D 30.1893 
*END

*D_NET *287 0.000795014
*CONN
*I *2053:D I *D sky130_fd_sc_hd__dfrtp_2
*I *1757:X O *D sky130_fd_sc_hd__mux2_1
*CAP
1 *2053:D 0.000310607
2 *1757:X 0.000310607
3 *2053:D *1757:A0 0
4 *2053:D *436:12 0
5 *2053:D *731:124 0.000173799
*RES
1 *1757:X *2053:D 33.85 
*END

*D_NET *288 0.000461729
*CONN
*I *2054:D I *D sky130_fd_sc_hd__dfrtp_2
*I *1740:X O *D sky130_fd_sc_hd__o22a_2
*CAP
1 *2054:D 0.000152376
2 *1740:X 0.000152376
3 *2054:D *1740:B1 5.35386e-05
4 *2054:D *692:42 0.000103437
*RES
1 *1740:X *2054:D 30.2964 
*END

*D_NET *289 0.00111077
*CONN
*I *2055:D I *D sky130_fd_sc_hd__dfrtp_2
*I *1736:X O *D sky130_fd_sc_hd__o31a_2
*CAP
1 *2055:D 0.000465105
2 *1736:X 0.000465105
3 *2055:D *1612:A 0
4 *2055:D *718:10 0
5 *13:12 *2055:D 0.000180563
*RES
1 *1736:X *2055:D 36.3143 
*END

*D_NET *290 0.00056523
*CONN
*I *2056:D I *D sky130_fd_sc_hd__dfrtp_2
*I *1735:X O *D sky130_fd_sc_hd__o21a_2
*CAP
1 *2056:D 0.000173242
2 *1735:X 0.000173242
3 *2056:D *2056:CLK 0.000102074
4 *2056:D *692:78 7.74135e-05
5 *13:12 *2056:D 3.92589e-05
*RES
1 *1735:X *2056:D 30.4616 
*END

*D_NET *291 0.00279635
*CONN
*I *2057:D I *D sky130_fd_sc_hd__dfrtp_2
*I *1733:X O *D sky130_fd_sc_hd__or2_2
*CAP
1 *2057:D 0
2 *1733:X 0.000899039
3 *291:22 0.000899039
4 *291:22 *1730:A 3.08664e-05
5 *291:22 *1732:A2 0.000143452
6 *291:22 *1732:B1 6.94441e-06
7 *291:22 *1848:A 0.000182806
8 *291:22 *2057:CLK 5.23735e-05
9 *291:22 *2058:D 8.9179e-05
10 *291:22 *2156:A 2.18653e-05
11 *291:22 *414:12 8.46259e-06
12 *291:22 *478:20 0.000235722
13 *291:22 *723:8 3.15815e-05
14 *291:22 *724:12 0.000101771
15 *2058:RESET_B *291:22 9.32542e-05
*RES
1 *1733:X *291:22 42.1393 
2 *291:22 *2057:D 9.3 
*END

*D_NET *292 0.000933522
*CONN
*I *2058:D I *D sky130_fd_sc_hd__dfrtp_2
*I *1730:X O *D sky130_fd_sc_hd__or2_2
*CAP
1 *2058:D 0.000280909
2 *1730:X 0.000280909
3 *2058:D *1730:A 5.88989e-05
4 *2058:D *414:12 0.000125005
5 *2058:RESET_B *2058:D 9.8621e-05
6 *291:22 *2058:D 8.9179e-05
*RES
1 *1730:X *2058:D 32.2429 
*END

*D_NET *293 0.000283374
*CONN
*I *2059:D I *D sky130_fd_sc_hd__dfrtp_2
*I *1722:X O *D sky130_fd_sc_hd__o31a_2
*CAP
1 *2059:D 4.47022e-05
2 *1722:X 4.47022e-05
3 *2059:D *1722:A1 0.000127439
4 *2059:D *535:15 6.65302e-05
*RES
1 *1722:X *2059:D 29.2429 
*END

*D_NET *294 0.00106565
*CONN
*I *2060:D I *D sky130_fd_sc_hd__dfrtp_2
*I *1721:X O *D sky130_fd_sc_hd__o31a_2
*CAP
1 *2060:D 0.000350066
2 *1721:X 0.000350066
3 *2060:D *1616:A 1.02504e-05
4 *2060:D *1788:C1 0.000120727
5 *2060:D *1973:A 0
6 *2060:D *2059:CLK 0.000117631
7 *2060:D *2185:A 0.00011691
8 *2084:RESET_B *2060:D 0
*RES
1 *1721:X *2060:D 35.1714 
*END

*D_NET *295 0.000599614
*CONN
*I *2061:D I *D sky130_fd_sc_hd__dfrtp_2
*I *1720:Y O *D sky130_fd_sc_hd__a21boi_2
*CAP
1 *2061:D 0.000106223
2 *1720:Y 0.000106223
3 *2061:D *1720:B1_N 0
4 *2061:D *1725:A 5.49995e-05
5 *2061:D *1790:C_N 6.11594e-05
6 *2061:D *2100:CLK 9.67754e-05
7 *2061:D *413:31 0.000174233
*RES
1 *1720:Y *2061:D 30.7964 
*END

*D_NET *296 0.00042066
*CONN
*I *2062:D I *D sky130_fd_sc_hd__dfrtp_2
*I *1718:X O *D sky130_fd_sc_hd__a21o_2
*CAP
1 *2062:D 7.94513e-05
2 *1718:X 7.94513e-05
3 *2062:D *1951:A 5.33005e-05
4 *2062:D *2092:CLK 2.59355e-05
5 *2062:D *407:12 1.76039e-05
6 *2062:D *407:25 4.33438e-05
7 *2062:D *537:22 0.000121573
*RES
1 *1718:X *2062:D 29.7786 
*END

*D_NET *297 0.000553157
*CONN
*I *2063:D I *D sky130_fd_sc_hd__dfrtp_2
*I *1713:Y O *D sky130_fd_sc_hd__o31ai_2
*CAP
1 *2063:D 0.000118145
2 *1713:Y 0.000118145
3 *2063:D *492:43 0.00019299
4 *2063:D *666:10 9.79406e-05
5 *2063:D *679:48 2.59355e-05
*RES
1 *1713:Y *2063:D 30.6893 
*END

*D_NET *298 0.00171795
*CONN
*I *2064:D I *D sky130_fd_sc_hd__dfrtp_2
*I *1711:X O *D sky130_fd_sc_hd__o21ba_2
*CAP
1 *2064:D 0.00038378
2 *1711:X 0.00038378
3 *2064:D *1710:B1_N 2.99773e-05
4 *2064:D *1853:A 1.02504e-05
5 *2064:D *2065:D 0.000242306
6 *2064:D *447:30 0.000523367
7 *2064:D *484:12 2.81379e-05
8 *2064:RESET_B *2064:D 0.000116348
*RES
1 *1711:X *2064:D 37.4036 
*END

*D_NET *299 0.000848332
*CONN
*I *2065:D I *D sky130_fd_sc_hd__dfrtp_2
*I *1710:X O *D sky130_fd_sc_hd__o21ba_2
*CAP
1 *2065:D 0.000181623
2 *1710:X 0.000181623
3 *2065:D *1710:B1_N 5.59013e-05
4 *2065:D *1711:A1 0
5 *2065:D *1855:A1 9.47378e-05
6 *2065:D *666:16 0
7 *2065:D *678:16 9.21413e-05
8 *2065:D *679:23 0
9 *2064:D *2065:D 0.000242306
10 *2065:RESET_B *2065:D 0
*RES
1 *1710:X *2065:D 32.5286 
*END

*D_NET *300 0.000644912
*CONN
*I *2066:D I *D sky130_fd_sc_hd__dfrtp_2
*I *1705:X O *D sky130_fd_sc_hd__and3_2
*CAP
1 *2066:D 0.00014082
2 *1705:X 0.00014082
3 *2066:D *1689:A 5.50052e-05
4 *2066:D *1690:D 0
5 *2066:D *1702:A2 5.52302e-05
6 *2066:D *1703:B 0
7 *2066:D *1705:B 5.33005e-05
8 *2066:D *1705:C 0.000199736
*RES
1 *1705:X *2066:D 31.225 
*END

*D_NET *301 0.000523156
*CONN
*I *2067:D I *D sky130_fd_sc_hd__dfrtp_2
*I *1703:Y O *D sky130_fd_sc_hd__nor2_2
*CAP
1 *2067:D 0.000183288
2 *1703:Y 0.000183288
3 *2067:D *1690:D 9.99853e-05
4 *2067:D *673:34 5.65955e-05
*RES
1 *1703:Y *2067:D 31.2071 
*END

*D_NET *302 0.00077456
*CONN
*I *2068:D I *D sky130_fd_sc_hd__dfrtp_2
*I *1701:X O *D sky130_fd_sc_hd__and2_2
*CAP
1 *2068:D 0.0002127
2 *1701:X 0.0002127
3 *2068:D *1701:B 0.000292862
4 *2068:D *385:48 5.62995e-05
5 *2068:D *756:10 0
*RES
1 *1701:X *2068:D 32.3143 
*END

*D_NET *303 0.000290791
*CONN
*I *2069:D I *D sky130_fd_sc_hd__dfrtp_2
*I *1698:X O *D sky130_fd_sc_hd__and3_2
*CAP
1 *2069:D 0.00014237
2 *1698:X 0.00014237
3 *2069:D *765:8 6.05161e-06
*RES
1 *1698:X *2069:D 20.7964 
*END

*D_NET *304 0.000273863
*CONN
*I *2070:D I *D sky130_fd_sc_hd__dfrtp_2
*I *1696:Y O *D sky130_fd_sc_hd__nor2_2
*CAP
1 *2070:D 7.32562e-05
2 *1696:Y 7.32562e-05
3 *2070:D *1695:B 4.51611e-05
4 *2070:D *2071:CLK 7.48091e-05
5 *2070:D *388:6 3.69047e-06
6 *2070:D *766:14 3.69047e-06
*RES
1 *1696:Y *2070:D 20.3679 
*END

*D_NET *305 0.000867092
*CONN
*I *2071:D I *D sky130_fd_sc_hd__dfrtp_2
*I *1694:X O *D sky130_fd_sc_hd__xor2_2
*CAP
1 *2071:D 0.000285543
2 *1694:X 0.000285543
3 *2071:D *1694:A 5.56943e-05
4 *2071:D *542:43 0
5 *2071:D *700:59 4.57445e-05
6 *2071:D *767:12 7.24668e-05
7 *2071:D *767:14 0.000122101
*RES
1 *1694:X *2071:D 33.475 
*END

*D_NET *306 0.00115606
*CONN
*I *2072:D I *D sky130_fd_sc_hd__dfrtp_2
*I *1693:Y O *D sky130_fd_sc_hd__xnor2_2
*CAP
1 *2072:D 0.000312213
2 *1693:Y 0.000312213
3 *2072:D *1668:B 8.75654e-05
4 *2072:D *1840:A 0
5 *2072:D *2073:CLK 0.000145019
6 *2072:D *2080:D 0.000100036
7 *2072:D *535:245 0
8 *2072:D *542:10 0.000173083
9 *2072:D *542:14 2.59355e-05
*RES
1 *1693:Y *2072:D 34.975 
*END

*D_NET *307 0.0013034
*CONN
*I *2073:D I *D sky130_fd_sc_hd__dfrtp_2
*I *1692:X O *D sky130_fd_sc_hd__xor2_2
*CAP
1 *2073:D 0.000337763
2 *1692:X 0.000337763
3 *2073:D *1688:B 0.000176226
4 *2073:D *2207:A 0
5 *2073:D *699:58 0.000387425
6 *2073:D *768:38 6.42242e-05
*RES
1 *1692:X *2073:D 35.1714 
*END

*D_NET *308 0.000260264
*CONN
*I *2074:D I *D sky130_fd_sc_hd__dfrtp_2
*I *1683:Y O *D sky130_fd_sc_hd__nor2_2
*CAP
1 *2074:D 4.12058e-05
2 *1683:Y 4.12058e-05
3 *2074:D *540:44 4.79842e-05
4 *2074:D *696:61 0.000129868
*RES
1 *1683:Y *2074:D 29.2429 
*END

*D_NET *309 0.000972564
*CONN
*I *2075:D I *D sky130_fd_sc_hd__dfrtp_2
*I *1681:X O *D sky130_fd_sc_hd__o211a_2
*CAP
1 *2075:D 0.000319626
2 *1681:X 0.000319626
3 *2075:D *1673:B 0.000134613
4 *2075:D *1674:A 5.63217e-05
5 *2075:D *1674:B 0
6 *2075:D *1680:A 0
7 *2075:D *1681:A1 0
8 *2075:D *1964:A 1.68516e-05
9 *2075:D *373:12 2.70125e-05
10 *2075:RESET_B *2075:D 9.85137e-05
*RES
1 *1681:X *2075:D 33.4214 
*END

*D_NET *310 0.000544254
*CONN
*I *2076:D I *D sky130_fd_sc_hd__dfrtp_2
*I *1674:Y O *D sky130_fd_sc_hd__nor2_2
*CAP
1 *2076:D 0.000194445
2 *1674:Y 0.000194445
3 *2076:D *1673:B 5.51273e-05
4 *2076:D *1674:B 0
5 *2075:RESET_B *2076:D 0.000100236
*RES
1 *1674:Y *2076:D 31.6714 
*END

*D_NET *311 0.000637975
*CONN
*I *2077:D I *D sky130_fd_sc_hd__dfrtp_2
*I *1672:X O *D sky130_fd_sc_hd__xor2_2
*CAP
1 *2077:D 0.000241492
2 *1672:X 0.000241492
3 *2077:D *1671:B 4.46186e-06
4 *2077:D *2078:D 6.97972e-05
5 *2077:D *695:18 0
6 *2077:D *701:92 8.07313e-05
7 *2076:RESET_B *2077:D 0
*RES
1 *1672:X *2077:D 32.2607 
*END

*D_NET *312 0.000566752
*CONN
*I *2078:D I *D sky130_fd_sc_hd__dfrtp_2
*I *1671:X O *D sky130_fd_sc_hd__xor2_2
*CAP
1 *2078:D 0.000158532
2 *1671:X 0.000158532
3 *2078:D *1965:A 0
4 *2078:D *695:18 0.00017989
5 *2077:D *2078:D 6.97972e-05
*RES
1 *1671:X *2078:D 31.975 
*END

*D_NET *313 0.000870893
*CONN
*I *2079:D I *D sky130_fd_sc_hd__dfrtp_2
*I *1670:Y O *D sky130_fd_sc_hd__nor2_2
*CAP
1 *2079:D 0.000135105
2 *1670:Y 0.000135105
3 *2079:D *1668:B 0.000224241
4 *2079:D *375:17 0.000227539
5 *2079:D *701:92 0.000148903
*RES
1 *1670:Y *2079:D 31.725 
*END

*D_NET *314 0.00194484
*CONN
*I *2080:D I *D sky130_fd_sc_hd__dfrtp_2
*I *1668:X O *D sky130_fd_sc_hd__and2_2
*CAP
1 *2080:D 0.000623029
2 *1668:X 0.000623029
3 *2080:D *1668:A 5.95612e-05
4 *2080:D *1668:B 0.00013364
5 *2080:D *2072:CLK 0.000173021
6 *2080:D *2130:A 3.20883e-05
7 *2080:D *2165:A 5.62995e-05
8 *2080:D *535:245 0
9 *2080:D *541:10 0.000144132
10 *2072:D *2080:D 0.000100036
*RES
1 *1668:X *2080:D 39.1 
*END

*D_NET *315 0.000335166
*CONN
*I *2081:D I *D sky130_fd_sc_hd__dfrtp_2
*I *1666:Y O *D sky130_fd_sc_hd__xnor2_2
*CAP
1 *2081:D 0.000140916
2 *1666:Y 0.000140916
3 *2081:D *2081:CLK 5.33334e-05
*RES
1 *1666:Y *2081:D 20.7786 
*END

*D_NET *316 0.00241105
*CONN
*I *2082:D I *D sky130_fd_sc_hd__dfstp_2
*I *1644:X O *D sky130_fd_sc_hd__a31o_2
*CAP
1 *2082:D 0.00111178
2 *1644:X 0.00111178
3 *2082:D *1778:B1 0
4 *2082:D *1794:C1 3.34295e-05
5 *2082:D *346:21 0.00011069
6 *2082:D *347:10 2.28335e-05
7 *2170:A *2082:D 2.05413e-05
*RES
1 *1644:X *2082:D 38.8446 
*END

*D_NET *317 0.000569293
*CONN
*I *2179:A I *D sky130_fd_sc_hd__dlygate4sd3_1
*I *1642:Y O *D sky130_fd_sc_hd__a31oi_2
*CAP
1 *2179:A 0.000235125
2 *1642:Y 0.000235125
3 *2179:A *1644:B1 9.90431e-05
*RES
1 *1642:Y *2179:A 22.4214 
*END

*D_NET *318 0.000431258
*CONN
*I *2084:D I *D sky130_fd_sc_hd__dfrtp_2
*I *1632:X O *D sky130_fd_sc_hd__a22o_2
*CAP
1 *2084:D 0.000151395
2 *1632:X 0.000151395
3 *2084:D *1628:C 4.8936e-05
4 *2084:D *1632:A2 2.84494e-05
5 *2084:D *340:30 5.10822e-05
6 *2084:D *551:33 0
*RES
1 *1632:X *2084:D 30.6893 
*END

*D_NET *319 0.000254433
*CONN
*I *2099:D I *D sky130_fd_sc_hd__dfrtp_2
*I *1832:Y O *D sky130_fd_sc_hd__nor2_2
*CAP
1 *2099:D 0.000100613
2 *1832:Y 0.000100613
3 *2099:D *471:12 5.32071e-05
*RES
1 *1832:Y *2099:D 29.475 
*END

*D_NET *320 0.00160779
*CONN
*I *2100:D I *D sky130_fd_sc_hd__dfrtp_2
*I *1833:Y O *D sky130_fd_sc_hd__nor2_2
*CAP
1 *2100:D 0.000373231
2 *1833:Y 0.000373231
3 *2100:D *1725:C 6.14702e-06
4 *2100:D *1833:B 0.000104
5 *2100:D *2255:A 0.000150917
6 *2100:D *412:14 5.99365e-05
7 *2100:D *471:12 0.00052956
8 *2100:D *701:24 1.07719e-05
*RES
1 *1833:Y *2100:D 37.3679 
*END

*D_NET *321 0.00341071
*CONN
*I *1643:B1 I *D sky130_fd_sc_hd__a21oi_2
*I *1736:A1 I *D sky130_fd_sc_hd__o31a_2
*I *1605:Y O *D sky130_fd_sc_hd__inv_2
*CAP
1 *1643:B1 0.000516496
2 *1736:A1 0.000332884
3 *1605:Y 0
4 *321:4 0.000849381
5 *1643:B1 *1634:B 0.000227532
6 *1643:B1 *1640:A0 4.58194e-05
7 *1643:B1 *1640:A1 6.42095e-05
8 *1643:B1 *353:8 0.000133754
9 *1643:B1 *775:14 5.52238e-05
10 *1736:A1 *1736:A2 5.7705e-05
11 *1736:A1 *1736:A3 0.000221634
12 *1736:A1 *1736:B1 0.000472416
13 *1736:A1 *346:8 3.14078e-05
14 *1736:A1 *538:65 0.00024265
15 *1736:A1 *565:10 3.19564e-05
16 *1736:A1 *694:67 8.46003e-05
17 *2170:A *1643:B1 4.30382e-05
*RES
1 *1605:Y *321:4 9.3 
2 *321:4 *1736:A1 27.7643 
3 *321:4 *1643:B1 18.4964 
*END

*D_NET *322 0.00238242
*CONN
*I *1712:B1 I *D sky130_fd_sc_hd__a31o_2
*I *1708:B I *D sky130_fd_sc_hd__and4b_2
*I *1706:B I *D sky130_fd_sc_hd__and4b_2
*I *1606:Y O *D sky130_fd_sc_hd__inv_2
*CAP
1 *1712:B1 0.000158629
2 *1708:B 0
3 *1706:B 0.000163989
4 *1606:Y 0.000522207
5 *322:14 0.000527567
6 *1706:B *1706:D 0.000117011
7 *1706:B *1707:B 1.30241e-05
8 *1706:B *1728:B1 0.00012511
9 *1706:B *1731:B1 4.58194e-05
10 *1706:B *1786:B1 5.59013e-05
11 *1706:B *724:16 0.00019467
12 *1706:B *733:20 6.76116e-05
13 *1706:B *739:26 5.33005e-05
14 *1712:B1 *404:16 2.81946e-05
15 *322:14 *1606:A 7.31195e-06
16 *322:14 *1707:B 1.24368e-05
17 *322:14 *1709:A 0.000141734
18 *322:14 *1786:A1 2.16394e-05
19 *322:14 *402:8 1.03105e-05
20 *322:14 *404:16 3.42301e-05
21 *322:14 *739:26 8.17274e-05
*RES
1 *1606:Y *322:14 23.2821 
2 *322:14 *1706:B 22.9429 
3 *322:14 *1708:B 9.3 
4 *1606:Y *1712:B1 30.0821 
*END

*D_NET *323 0.00458907
*CONN
*I *1924:A1 I *D sky130_fd_sc_hd__a21oi_2
*I *1607:Y O *D sky130_fd_sc_hd__inv_2
*CAP
1 *1924:A1 0
2 *1607:Y 0.00138523
3 *323:18 0.00138523
4 *323:18 *1923:B1 5.6505e-05
5 *323:18 *2108:CLK 0.00019867
6 *323:18 *2276:A 0.000225982
7 *323:18 *2282:A 0.000227912
8 *323:18 *527:23 8.64228e-05
9 *323:18 *528:20 6.96821e-05
10 *323:18 *636:34 4.22135e-06
11 *323:18 *688:87 0
12 pcRegister[27] *323:18 0.000265721
13 pcRegister[28] *323:18 9.9974e-05
14 *2043:D *323:18 9.82592e-05
15 *2108:D *323:18 6.05161e-06
16 *169:18 *323:18 0.000164633
17 *169:79 *323:18 0.000235823
18 *278:22 *323:18 7.87469e-05
*RES
1 *1607:Y *323:18 48.8357 
2 *323:18 *1924:A1 13.8 
*END

*D_NET *324 0.000769628
*CONN
*I *1887:D1 I *D sky130_fd_sc_hd__a2111oi_2
*I *1608:Y O *D sky130_fd_sc_hd__inv_2
*CAP
1 *1887:D1 0.000201217
2 *1608:Y 0.000201217
3 *1887:D1 *506:10 0.00031411
4 *2012:RESET_B *1887:D1 5.30847e-05
*RES
1 *1608:Y *1887:D1 32.2071 
*END

*D_NET *325 0.0018112
*CONN
*I *1887:C1 I *D sky130_fd_sc_hd__a2111oi_2
*I *1885:A1 I *D sky130_fd_sc_hd__a21o_2
*I *1609:Y O *D sky130_fd_sc_hd__inv_2
*CAP
1 *1887:C1 0.00010929
2 *1885:A1 0.000194254
3 *1609:Y 0.000271782
4 *325:10 0.000575327
5 *1885:A1 *1771:A 9.90367e-05
6 *1885:A1 *447:12 9.90367e-05
7 *1885:A1 *535:76 1.57523e-05
8 *1887:C1 *1771:B 0.000182875
9 *1887:C1 *1881:A 5.78853e-05
10 *1887:C1 *1881:B 3.02892e-05
11 *1887:C1 *2242:A 0
12 *1887:C1 *506:10 3.67279e-06
13 *325:10 *1781:A_N 0
14 *325:10 *1881:A 9.42205e-05
15 *325:10 *1978:A 7.77751e-05
16 *325:10 *2242:A 0
17 *325:10 *413:41 0
*RES
1 *1609:Y *325:10 18.6214 
2 *325:10 *1885:A1 16.3893 
3 *325:10 *1887:C1 16.9607 
*END

*D_NET *326 0.000915533
*CONN
*I *1725:A I *D sky130_fd_sc_hd__nor3_2
*I *1720:A1 I *D sky130_fd_sc_hd__a21boi_2
*I *1610:Y O *D sky130_fd_sc_hd__inv_2
*CAP
1 *1725:A 0.000106456
2 *1720:A1 0
3 *1610:Y 7.17127e-05
4 *326:6 0.000178169
5 *1725:A *1726:B 3.02801e-05
6 *1725:A *1790:C_N 0.000173015
7 *1725:A *2100:CLK 2.12733e-05
8 *1725:A *413:31 6.23278e-05
9 *326:6 *1610:A 5.49995e-05
10 *326:6 *1720:A2 0.000141036
11 *326:6 *2100:CLK 2.12647e-05
12 *2061:D *1725:A 5.49995e-05
*RES
1 *1610:Y *326:6 11.0679 
2 *326:6 *1720:A1 9.3 
3 *326:6 *1725:A 21.4964 
*END

*D_NET *327 0.00172927
*CONN
*I *1767:A1 I *D sky130_fd_sc_hd__o21a_2
*I *1739:B I *D sky130_fd_sc_hd__nor2_2
*I *1611:Y O *D sky130_fd_sc_hd__inv_2
*CAP
1 *1767:A1 0
2 *1739:B 0.000134857
3 *1611:Y 0.000234593
4 *327:10 0.00036945
5 *1739:B *1740:B1 5.66971e-05
6 *1739:B *1797:C1 0.000286335
7 *1739:B *1938:A 2.38501e-05
8 *1739:B *2258:A 3.67279e-06
9 *327:10 *1797:C1 0.000332735
10 *13:12 *1739:B 9.34212e-05
11 *13:12 *327:10 0.000193664
*RES
1 *1611:Y *327:10 19.5321 
2 *327:10 *1739:B 17.8179 
3 *327:10 *1767:A1 13.8 
*END

*D_NET *328 0.00147569
*CONN
*I *1842:B1 I *D sky130_fd_sc_hd__a21oi_2
*I *1736:A3 I *D sky130_fd_sc_hd__o31a_2
*I *1612:Y O *D sky130_fd_sc_hd__inv_2
*CAP
1 *1842:B1 0.000116413
2 *1736:A3 8.47533e-05
3 *1612:Y 3.66367e-05
4 *328:8 0.000237803
5 *1736:A3 *694:67 0.000136951
6 *1842:B1 *1633:B 0.000213706
7 *1842:B1 *1944:A 0.000202019
8 *1842:B1 *707:21 5.33005e-05
9 *328:8 *1633:B 3.34295e-05
10 *328:8 *1944:A 0.00010326
11 *328:8 *1986:A 3.57844e-05
12 *1736:A1 *1736:A3 0.000221634
*RES
1 *1612:Y *328:8 15.1393 
2 *328:8 *1736:A3 15.9786 
3 *328:8 *1842:B1 17.1929 
*END

*D_NET *329 0.00453019
*CONN
*I *1789:A1 I *D sky130_fd_sc_hd__o21bai_2
*I *1726:A I *D sky130_fd_sc_hd__and2_2
*I *1728:A2 I *D sky130_fd_sc_hd__a21oi_2
*I *1731:A2 I *D sky130_fd_sc_hd__a21oi_2
*I *1613:Y O *D sky130_fd_sc_hd__inv_2
*CAP
1 *1789:A1 0
2 *1726:A 0.00038289
3 *1728:A2 3.64639e-05
4 *1731:A2 3.78905e-05
5 *1613:Y 0.000254547
6 *329:14 7.43544e-05
7 *329:12 0.000860622
8 *329:10 0.000732279
9 *1726:A *1730:B 1.01912e-05
10 *1726:A *2057:CLK 0.000290742
11 *1728:A2 *1731:A1 0.000134702
12 *1731:A2 *1731:A1 4.31966e-05
13 *1731:A2 *1732:A2 3.58774e-05
14 *329:10 *1759:A_N 0.00022266
15 *329:10 *1788:B1 3.93893e-05
16 *329:12 *1706:D 0.000184615
17 *329:12 *1707:A 0.000196269
18 *329:12 *1708:A_N 5.41797e-06
19 *329:12 *1731:B1 0.00045202
20 *329:12 *1732:A1 4.60232e-06
21 *329:12 *1732:B1 9.92454e-05
22 *329:12 *1785:B1 1.13495e-05
23 *329:12 *1786:B1 8.47107e-05
24 *329:12 *1788:B1 4.1331e-06
25 *329:12 *705:12 0
26 *329:12 *723:19 0.000264841
27 *329:12 *724:16 6.71851e-05
28 *329:12 *733:20 0
29 *2063:RESET_B *329:12 0
*RES
1 *1613:Y *329:10 17.6214 
2 *329:10 *329:12 12.875 
3 *329:12 *329:14 4.5 
4 *329:14 *1731:A2 10.4696 
5 *329:14 *1728:A2 10.675 
6 *329:12 *1726:A 21.5924 
7 *329:10 *1789:A1 13.8 
*END

*D_NET *330 0.00251803
*CONN
*I *1783:A2 I *D sky130_fd_sc_hd__a22o_2
*I *1722:A2 I *D sky130_fd_sc_hd__o31a_2
*I *1614:Y O *D sky130_fd_sc_hd__inv_2
*CAP
1 *1783:A2 0.000479316
2 *1722:A2 9.26924e-05
3 *1614:Y 5.88675e-05
4 *330:6 0.000630876
5 *1722:A2 *1621:A2 2.77143e-05
6 *1722:A2 *1722:A1 3.57366e-05
7 *1722:A2 *1722:A3 6.77932e-05
8 *1722:A2 *1722:B1 4.60217e-05
9 *1783:A2 *1841:B 0
10 *1783:A2 *450:12 0.000445238
11 *1783:A2 *535:15 0
12 *1783:A2 *535:133 6.07908e-05
13 *1783:A2 *551:10 0.000124611
14 *1783:A2 *734:8 0.00029513
15 *330:6 *1722:B1 0.000142856
16 *2052:RESET_B *1783:A2 1.03904e-05
17 *2059:RESET_B *1783:A2 0
*RES
1 *1614:Y *330:6 10.6571 
2 *330:6 *1722:A2 11.3893 
3 *330:6 *1783:A2 30.0411 
*END

*D_NET *331 0.00290529
*CONN
*I *1722:A3 I *D sky130_fd_sc_hd__o31a_2
*I *1721:A2 I *D sky130_fd_sc_hd__o31a_2
*I *1784:A I *D sky130_fd_sc_hd__nor2_2
*I *1615:Y O *D sky130_fd_sc_hd__inv_2
*CAP
1 *1722:A3 0.000352728
2 *1721:A2 0
3 *1784:A 0.000144127
4 *1615:Y 0.000354642
5 *331:10 0.000264279
6 *331:6 0.000827521
7 *1722:A3 *1621:A2 1.66438e-05
8 *1722:A3 *1621:B1 0.000227526
9 *1722:A3 *1722:A1 0.000140933
10 *1722:A3 *535:15 3.92854e-05
11 *1722:A3 *734:8 8.07951e-05
12 *1784:A *1721:B1 6.65398e-05
13 *1784:A *1783:B1 2.00751e-05
14 *1784:A *2185:A 0
15 *331:6 *335:10 0.000271648
16 *331:6 *734:71 1.02821e-05
17 *331:10 *1616:A 0
18 *331:10 *1721:B1 5.80706e-06
19 *331:10 *1783:B1 1.46624e-05
20 *331:10 *727:40 0
21 *1722:A2 *1722:A3 6.77932e-05
*RES
1 *1615:Y *331:6 14.3536 
2 *331:6 *331:10 6.44643 
3 *331:10 *1784:A 16.5857 
4 *331:10 *1721:A2 13.8 
5 *331:6 *1722:A3 24.9607 
*END

*D_NET *332 0.0030472
*CONN
*I *1783:B1 I *D sky130_fd_sc_hd__a22o_2
*I *1721:A3 I *D sky130_fd_sc_hd__o31a_2
*I *1616:Y O *D sky130_fd_sc_hd__inv_2
*CAP
1 *1783:B1 0.000336626
2 *1721:A3 0
3 *1616:Y 0.000344641
4 *332:6 0.000681267
5 *1783:B1 *1626:A 0
6 *1783:B1 *1721:B1 0.000125731
7 *1783:B1 *1783:A1 0.000111102
8 *1783:B1 *1783:B2 0.00022211
9 *1783:B1 *2059:CLK 8.57023e-05
10 *1783:B1 *2185:A 0
11 *1783:B1 *727:25 0.000150625
12 *1783:B1 *727:40 0.000210198
13 *332:6 *2059:CLK 0.000744458
14 *1784:A *1783:B1 2.00751e-05
15 *331:10 *1783:B1 1.46624e-05
*RES
1 *1616:Y *332:6 16.4071 
2 *332:6 *1721:A3 9.3 
3 *332:6 *1783:B1 27.7286 
*END

*D_NET *333 0.00157382
*CONN
*I *1629:A I *D sky130_fd_sc_hd__nand2_2
*I *1632:B2 I *D sky130_fd_sc_hd__a22o_2
*I *1775:B1 I *D sky130_fd_sc_hd__a21oi_2
*I *1617:Y O *D sky130_fd_sc_hd__inv_2
*CAP
1 *1629:A 0.000133924
2 *1632:B2 0
3 *1775:B1 0.000317057
4 *1617:Y 0.000156428
5 *333:6 0.000339562
6 *1629:A *1627:B 1.32056e-05
7 *1629:A *1628:A 7.24209e-05
8 *1629:A *779:14 2.36643e-05
9 *1775:B1 *1628:A 9.1407e-06
10 *1775:B1 *1776:B 5.65955e-05
11 *1775:B1 *1933:A 9.99853e-05
12 *1775:B1 *1973:A 1.32056e-05
13 *1775:B1 *551:24 6.39104e-05
14 *1775:B1 *551:33 1.34406e-05
15 *1775:B1 *779:10 6.77287e-05
16 *333:6 *1632:B1 9.77423e-05
17 *333:6 *779:14 9.58126e-05
*RES
1 *1617:Y *333:6 10.2464 
2 *333:6 *1775:B1 24.5857 
3 *333:6 *1632:B2 9.3 
4 *1617:Y *1629:A 30.0821 
*END

*D_NET *334 0.000728978
*CONN
*I *1798:A2 I *D sky130_fd_sc_hd__a21o_2
*I *1620:Y O *D sky130_fd_sc_hd__nand2_2
*CAP
1 *1798:A2 7.52773e-05
2 *1620:Y 7.52773e-05
3 *1798:A2 *1620:A 0.000373141
4 *1798:A2 *1620:B 0.000143375
5 *13:14 *1798:A2 6.19074e-05
*RES
1 *1620:Y *1798:A2 22.0107 
*END

*D_NET *335 0.00395138
*CONN
*I *1631:B I *D sky130_fd_sc_hd__and3_2
*I *1624:A I *D sky130_fd_sc_hd__nand2_2
*I *1800:A I *D sky130_fd_sc_hd__and2_2
*I *1621:X O *D sky130_fd_sc_hd__a31o_2
*CAP
1 *1631:B 0.000292013
2 *1624:A 0.000189597
3 *1800:A 0
4 *1621:X 0.000441357
5 *335:23 0.000686259
6 *335:10 0.000646005
7 *1624:A *1624:B 3.42959e-05
8 *1624:A *337:16 3.15101e-05
9 *1624:A *338:12 1.21258e-05
10 *1631:B *1631:A 0
11 *1631:B *1631:C 7.6644e-05
12 *1631:B *1801:B 2.41865e-05
13 *1631:B *1932:A 0.00027107
14 *1631:B *338:12 0
15 *1631:B *684:10 0
16 *335:10 *1615:A 5.23057e-05
17 *335:10 *1623:A3 5.52238e-05
18 *335:10 *1628:C 0.000112418
19 *335:10 *1632:A2 0.000105572
20 *335:10 *2159:A 0
21 *335:10 *734:71 0.000247823
22 *335:23 *1632:A2 2.14378e-05
23 *335:23 *1801:B 0.000277343
24 *335:23 *2159:A 0
25 *2103:D *335:23 0.000102545
26 *2104:D *335:23 0
27 *331:6 *335:10 0.000271648
*RES
1 *1621:X *335:10 24.6929 
2 *335:10 *1800:A 13.8 
3 *335:10 *335:23 5.33929 
4 *335:23 *1624:A 16.8179 
5 *335:23 *1631:B 18.6393 
*END

*D_NET *336 0.000126884
*CONN
*I *1799:A2 I *D sky130_fd_sc_hd__a21o_2
*I *1622:Y O *D sky130_fd_sc_hd__nand2_2
*CAP
1 *1799:A2 6.29488e-06
2 *1622:Y 6.29488e-06
3 *1799:A2 *341:31 5.71472e-05
4 *1799:A2 *539:20 5.71472e-05
*RES
1 *1622:Y *1799:A2 19.1357 
*END

*D_NET *337 0.00357434
*CONN
*I *1631:C I *D sky130_fd_sc_hd__and3_2
*I *1801:A I *D sky130_fd_sc_hd__and2_2
*I *1624:B I *D sky130_fd_sc_hd__nand2_2
*I *1623:X O *D sky130_fd_sc_hd__a31o_2
*CAP
1 *1631:C 0.000316966
2 *1801:A 0
3 *1624:B 3.97818e-05
4 *1623:X 0.000619899
5 *337:16 0.000225393
6 *337:12 0.00112248
7 *1624:B *338:12 1.24368e-05
8 *1631:C *1631:A 5.33005e-05
9 *1631:C *1826:A1 1.76039e-05
10 *1631:C *1826:B1 1.76039e-05
11 *1631:C *1827:B 5.52238e-05
12 *1631:C *684:10 0
13 *1631:C *685:6 0.000112491
14 *1631:C *685:10 1.46148e-05
15 *1631:C *685:26 0
16 *337:12 *1622:B 0
17 *337:12 *2104:CLK 0.00021528
18 *337:12 *2159:A 0.000248616
19 *337:12 *341:31 0
20 *337:12 *711:20 0.000112429
21 *1624:A *1624:B 3.42959e-05
22 *1624:A *337:16 3.15101e-05
23 *1631:B *1631:C 7.6644e-05
24 *2103:RESET_B *337:12 0.000247771
*RES
1 *1623:X *337:12 30.6571 
2 *337:12 *337:16 2.5 
3 *337:16 *1624:B 10.2643 
4 *337:16 *1801:A 9.3 
5 *337:12 *1631:C 24.1036 
*END

*D_NET *338 0.00170875
*CONN
*I *1630:A2 I *D sky130_fd_sc_hd__a22o_2
*I *1777:A2 I *D sky130_fd_sc_hd__a21o_2
*I *1624:Y O *D sky130_fd_sc_hd__nand2_2
*CAP
1 *1630:A2 2.71954e-06
2 *1777:A2 9.39421e-05
3 *1624:Y 0.000245427
4 *338:12 0.000342089
5 *1630:A2 *1630:B1 1.57155e-05
6 *1777:A2 *1630:B1 4.83648e-05
7 *1777:A2 *1630:B2 5.49489e-05
8 *1777:A2 *1777:A1 3.50166e-05
9 *1777:A2 *1801:B 0
10 *1777:A2 *341:31 3.80297e-05
11 *1777:A2 *342:21 0
12 *1777:A2 *778:36 0.000228508
13 *338:12 *1630:A1 5.58941e-05
14 *338:12 *1631:A 0.000390583
15 *338:12 *1632:A2 1.88048e-05
16 *338:12 *1801:B 0.000114145
17 *1624:A *338:12 1.21258e-05
18 *1624:B *338:12 1.24368e-05
19 *1631:B *338:12 0
*RES
1 *1624:Y *338:12 24.425 
2 *338:12 *1777:A2 12.7464 
3 *338:12 *1630:A2 9.44732 
*END

*D_NET *339 0.00122881
*CONN
*I *1760:A1 I *D sky130_fd_sc_hd__a31oi_2
*I *1625:Y O *D sky130_fd_sc_hd__nand2_2
*CAP
1 *1760:A1 0.000155006
2 *1625:Y 0.000155006
3 *1760:A1 *1760:B1 0.000407668
4 *1760:A1 *1788:A2 9.67754e-05
5 *1760:A1 *445:18 9.67754e-05
6 *1760:A1 *555:80 0.000215528
7 *2085:D *1760:A1 0.000102053
*RES
1 *1625:Y *1760:A1 33.8321 
*END

*D_NET *340 0.00495757
*CONN
*I *1628:C I *D sky130_fd_sc_hd__nand3_2
*I *1627:C I *D sky130_fd_sc_hd__and3_2
*I *1775:A2 I *D sky130_fd_sc_hd__a21oi_2
*I *1760:B1 I *D sky130_fd_sc_hd__a31oi_2
*I *1626:X O *D sky130_fd_sc_hd__and3_2
*CAP
1 *1628:C 0.000211016
2 *1627:C 0.000455576
3 *1775:A2 7.65965e-05
4 *1760:B1 0.000400623
5 *1626:X 0
6 *340:30 0.00086641
7 *340:19 0.000371662
8 *340:6 0.00049587
9 *1627:C *1632:A1 0.000227532
10 *1627:C *1632:B1 0.000359854
11 *1627:C *2059:CLK 1.02936e-05
12 *1628:C *1632:A2 0
13 *1628:C *1973:A 9.42298e-05
14 *1760:B1 *1626:C 0.000110638
15 *1760:B1 *1781:A_N 0
16 *1760:B1 *1788:A2 0
17 *1760:B1 *1980:A 0.000144773
18 *1760:B1 *441:8 5.71472e-05
19 *1760:B1 *449:12 0
20 *1760:B1 *555:80 6.44496e-05
21 *1775:A2 *551:24 0.00022887
22 *1775:A2 *555:80 5.49995e-05
23 *340:30 *1973:A 0.000106927
24 *340:30 *551:24 0
25 *340:30 *551:33 0
26 *1760:A1 *1760:B1 0.000407668
27 *2084:D *1628:C 4.8936e-05
28 *2084:D *340:30 5.10822e-05
29 *335:10 *1628:C 0.000112418
*RES
1 *1626:X *340:6 13.8 
2 *340:6 *1760:B1 23.4786 
3 *340:6 *340:19 1.64286 
4 *340:19 *1775:A2 15.9786 
5 *340:19 *340:30 4.375 
6 *340:30 *1627:C 20.0857 
7 *340:30 *1628:C 18.6214 
*END

*D_NET *341 0.00628465
*CONN
*I *1799:B1 I *D sky130_fd_sc_hd__a21o_2
*I *1798:B1 I *D sky130_fd_sc_hd__a21o_2
*I *1777:B1 I *D sky130_fd_sc_hd__a21o_2
*I *1627:X O *D sky130_fd_sc_hd__and3_2
*CAP
1 *1799:B1 0
2 *1798:B1 0.000483205
3 *1777:B1 3.62706e-05
4 *1627:X 0.000202513
5 *341:31 0.00177502
6 *341:12 0.0015306
7 *1777:B1 *1777:A1 5.38444e-06
8 *1798:B1 *1622:A 0
9 *1798:B1 *535:13 3.32631e-05
10 *1798:B1 *535:15 4.35131e-05
11 *1798:B1 *535:209 8.79872e-05
12 *1798:B1 *711:10 5.80706e-06
13 *1798:B1 *711:20 2.84494e-05
14 *1798:B1 *727:40 1.19309e-05
15 *1798:B1 *734:44 0.000227532
16 *341:12 *345:12 0.000264931
17 *341:31 *1622:B 8.73652e-05
18 *341:31 *1623:A1 4.58194e-05
19 *341:31 *1623:B1 0.000197991
20 *341:31 *1630:B1 0.000184745
21 *341:31 *1630:B2 2.78512e-05
22 *341:31 *342:21 0.00016834
23 *341:31 *539:20 0.000174317
24 *341:31 *539:63 3.14193e-05
25 *341:31 *684:10 3.6592e-05
26 *341:31 *711:20 0.000402766
27 *341:31 *778:25 1.21084e-05
28 *341:31 *778:36 7.15905e-06
29 *1777:A2 *341:31 3.80297e-05
30 *1799:A2 *341:31 5.71472e-05
31 *2013:D *341:12 4.00276e-06
32 *2013:D *341:31 3.06878e-06
33 *2104:D *341:31 1.1979e-05
34 *2123:A *1798:B1 4.4088e-05
35 *13:14 *1798:B1 1.34564e-05
36 *337:12 *341:31 0
*RES
1 *1627:X *341:12 22.3 
2 *341:12 *1777:B1 10.0321 
3 *341:12 *341:31 30.0893 
4 *341:31 *1798:B1 27.8 
5 *341:31 *1799:B1 9.3 
*END

*D_NET *342 0.00201174
*CONN
*I *1801:B I *D sky130_fd_sc_hd__and2_2
*I *1800:B I *D sky130_fd_sc_hd__and2_2
*I *1630:B1 I *D sky130_fd_sc_hd__a22o_2
*I *1628:Y O *D sky130_fd_sc_hd__nand3_2
*CAP
1 *1801:B 0.000265557
2 *1800:B 0
3 *1630:B1 4.67658e-05
4 *1628:Y 8.9803e-05
5 *342:21 0.000339549
6 *342:10 0.000210561
7 *1630:B1 *1632:A2 3.69047e-06
8 *1801:B *1632:A2 9.25014e-06
9 *342:10 *1628:B 1.31516e-05
10 *342:10 *1630:B2 0
11 *342:10 *1632:A2 0.000175505
12 *342:10 *2031:CLK 9.25014e-06
13 *342:21 *1632:A2 1.58163e-05
14 *1630:A2 *1630:B1 1.57155e-05
15 *1631:B *1801:B 2.41865e-05
16 *1777:A2 *1630:B1 4.83648e-05
17 *1777:A2 *1801:B 0
18 *1777:A2 *342:21 0
19 *335:23 *1801:B 0.000277343
20 *338:12 *1801:B 0.000114145
21 *341:31 *1630:B1 0.000184745
22 *341:31 *342:21 0.00016834
*RES
1 *1628:Y *342:10 20.55 
2 *342:10 *1630:B1 11.0679 
3 *342:10 *342:21 2.19643 
4 *342:21 *1800:B 9.3 
5 *342:21 *1801:B 25.1393 
*END

*D_NET *343 0.00058913
*CONN
*I *1630:B2 I *D sky130_fd_sc_hd__a22o_2
*I *1629:Y O *D sky130_fd_sc_hd__nand2_2
*CAP
1 *1630:B2 0.000241946
2 *1629:Y 0.000241946
3 *1630:B2 *1630:A1 4.13122e-06
4 *1630:B2 *2031:CLK 1.83053e-05
5 *1777:A2 *1630:B2 5.49489e-05
6 *341:31 *1630:B2 2.78512e-05
7 *342:10 *1630:B2 0
*RES
1 *1629:Y *1630:B2 31.4036 
*END

*D_NET *344 0.000974667
*CONN
*I *1632:A2 I *D sky130_fd_sc_hd__a22o_2
*I *1630:X O *D sky130_fd_sc_hd__a22o_2
*CAP
1 *1632:A2 0.000229613
2 *1630:X 0.000229613
3 *1632:A2 *1632:A1 1.57155e-05
4 *1632:A2 *2031:CLK 8.89385e-05
5 *1632:A2 *2059:CLK 1.46576e-05
6 *1632:A2 *551:33 1.76039e-05
7 *1628:C *1632:A2 0
8 *1630:B1 *1632:A2 3.69047e-06
9 *1801:B *1632:A2 9.25014e-06
10 *2084:D *1632:A2 2.84494e-05
11 *335:10 *1632:A2 0.000105572
12 *335:23 *1632:A2 2.14378e-05
13 *338:12 *1632:A2 1.88048e-05
14 *342:10 *1632:A2 0.000175505
15 *342:21 *1632:A2 1.58163e-05
*RES
1 *1630:X *1632:A2 33.8723 
*END

*D_NET *345 0.00380542
*CONN
*I *1632:B1 I *D sky130_fd_sc_hd__a22o_2
*I *1776:A I *D sky130_fd_sc_hd__or2_2
*I *1631:X O *D sky130_fd_sc_hd__and3_2
*CAP
1 *1632:B1 0.000144975
2 *1776:A 0.00012475
3 *1631:X 0.00068655
4 *345:12 0.000956274
5 *1632:B1 *1617:A 1.02132e-05
6 *1632:B1 *1627:B 3.34461e-05
7 *1632:B1 *1776:B 5.33005e-05
8 *1632:B1 *2059:CLK 6.05161e-06
9 *1632:B1 *555:31 7.0106e-05
10 *1632:B1 *779:14 4.51301e-05
11 *1776:A *1776:B 0.000139202
12 *345:12 *1627:A 5.79582e-06
13 *345:12 *1629:B 0.000222471
14 *345:12 *1776:B 3.12359e-05
15 *345:12 *1932:A 0.000174326
16 *345:12 *555:31 5.33614e-05
17 *345:12 *685:10 0.000185124
18 *345:12 *778:10 8.90892e-05
19 *1627:C *1632:B1 0.000359854
20 *2013:SET_B *345:12 5.14943e-05
21 *333:6 *1632:B1 9.77423e-05
22 *341:12 *345:12 0.000264931
*RES
1 *1631:X *345:12 32.9429 
2 *345:12 *1776:A 11.4786 
3 *345:12 *1632:B1 14.6393 
*END

*D_NET *346 0.00555296
*CONN
*I *1778:A2 I *D sky130_fd_sc_hd__a22o_2
*I *1640:A1 I *D sky130_fd_sc_hd__mux2_1
*I *1634:A_N I *D sky130_fd_sc_hd__nand2b_2
*I *1794:C1 I *D sky130_fd_sc_hd__a211o_2
*I *1633:X O *D sky130_fd_sc_hd__and3_2
*CAP
1 *1778:A2 0.000535285
2 *1640:A1 0.00018813
3 *1634:A_N 0
4 *1794:C1 0.000641821
5 *1633:X 0.000286861
6 *346:23 0.00018813
7 *346:21 0.00059922
8 *346:8 0.000992617
9 *1640:A1 *1634:B 0.000227532
10 *1640:A1 *775:14 4.38128e-05
11 *1778:A2 *1778:A1 0.000160879
12 *1778:A2 *1778:B1 0.000456811
13 *1778:A2 *538:65 6.98806e-05
14 *1778:A2 *775:14 1.4487e-05
15 *1794:C1 *1743:B1 9.76689e-05
16 *1794:C1 *1778:B1 0
17 *1794:C1 *2095:CLK 5.07737e-05
18 *1794:C1 *2152:A 0.000188513
19 *1794:C1 *348:20 7.17235e-05
20 *1794:C1 *535:176 0
21 *1794:C1 *537:8 5.52238e-05
22 *1794:C1 *538:10 5.65621e-05
23 *1794:C1 *538:12 6.88561e-05
24 *1794:C1 *538:65 8.93068e-05
25 *346:8 *1736:B1 5.33334e-05
26 *346:21 *538:65 3.43582e-05
27 *1643:B1 *1640:A1 6.42095e-05
28 *1736:A1 *346:8 3.14078e-05
29 *2082:D *1794:C1 3.34295e-05
30 *2082:D *346:21 0.00011069
31 *2170:A *1640:A1 7.02611e-05
32 *2170:A *1778:A2 6.88728e-05
33 *2170:A *346:21 2.30116e-06
*RES
1 *1633:X *346:8 17.2107 
2 *346:8 *1794:C1 28.7464 
3 *346:8 *346:21 1.64286 
4 *346:21 *346:23 4.5 
5 *346:23 *1634:A_N 9.3 
6 *346:23 *1640:A1 13.8536 
7 *346:21 *1778:A2 25.425 
*END

*D_NET *347 0.00191021
*CONN
*I *1779:B1_N I *D sky130_fd_sc_hd__a21bo_2
*I *1644:A2 I *D sky130_fd_sc_hd__a31o_2
*I *1642:A2 I *D sky130_fd_sc_hd__a31oi_2
*I *1634:Y O *D sky130_fd_sc_hd__nand2b_2
*CAP
1 *1779:B1_N 0.000169534
2 *1644:A2 0
3 *1642:A2 8.49729e-05
4 *1634:Y 0
5 *347:10 0.000209474
6 *347:6 0.000294034
7 *1642:A2 *1644:A1 4.88637e-05
8 *1642:A2 *1644:A3 0.000242822
9 *1642:A2 *1644:B1 0.00014285
10 *1642:A2 *350:14 5.52238e-05
11 *1779:B1_N *1778:B1 0
12 *1779:B1_N *1779:A2 0
13 *1779:B1_N *2016:CLK 9.75639e-05
14 *1779:B1_N *775:14 0
15 *347:10 *1778:B1 0
16 *347:10 *775:14 0
17 *2015:D *1779:B1_N 2.89114e-05
18 *2015:SET_B *1779:B1_N 7.8327e-05
19 *2082:D *347:10 2.28335e-05
20 *2170:A *1779:B1_N 0.000309066
21 *2170:A *347:10 0.000125731
*RES
1 *1634:Y *347:6 13.8 
2 *347:6 *347:10 7.05357 
3 *347:10 *1642:A2 12.6214 
4 *347:10 *1644:A2 9.3 
5 *347:6 *1779:B1_N 18.8223 
*END

*D_NET *348 0.0040053
*CONN
*I *1743:A1 I *D sky130_fd_sc_hd__a31o_2
*I *1635:Y O *D sky130_fd_sc_hd__nand2_2
*CAP
1 *1743:A1 0
2 *1635:Y 0.00134158
3 *348:20 0.00134158
4 *348:20 *1636:C 0.000143984
5 *348:20 *1743:B1 0.000116022
6 *348:20 *1792:B 1.37292e-05
7 *348:20 *1987:A 0.000142856
8 *348:20 *2125:A 5.33433e-05
9 *348:20 *537:8 5.52238e-05
10 *348:20 *694:27 0
11 *348:20 *701:57 0
12 *348:20 *719:10 9.40167e-05
13 *348:20 *719:14 0.000220455
14 *348:20 *719:60 0
15 *348:20 *719:66 0.000212202
16 *1794:C1 *348:20 7.17235e-05
17 *2092:D *348:20 0.000160643
18 *2098:RESET_B *348:20 3.79467e-05
*RES
1 *1635:Y *348:20 41.3179 
2 *348:20 *1743:A1 9.3 
*END

*D_NET *349 0.00337394
*CONN
*I *1637:B I *D sky130_fd_sc_hd__and2_2
*I *1638:B I *D sky130_fd_sc_hd__nand2_2
*I *1743:B1 I *D sky130_fd_sc_hd__a31o_2
*I *1636:X O *D sky130_fd_sc_hd__and3_2
*CAP
1 *1637:B 0.000105855
2 *1638:B 0
3 *1743:B1 0.00042591
4 *1636:X 0.000239179
5 *349:19 0.000309216
6 *349:6 0.00086845
7 *1637:B *1637:A 0.000189686
8 *1637:B *351:10 1.25366e-05
9 *1637:B *556:106 1.00887e-05
10 *1743:B1 *1796:A 0
11 *1743:B1 *2125:A 5.03772e-05
12 *1743:B1 *719:66 5.71472e-05
13 *349:6 *719:66 0.000519869
14 *349:19 *2095:D 3.25247e-05
15 *349:19 *2152:A 0
16 *349:19 *556:88 0.000101545
17 *349:19 *556:106 0.000237866
18 *1794:C1 *1743:B1 9.76689e-05
19 *348:20 *1743:B1 0.000116022
*RES
1 *1636:X *349:6 14.3536 
2 *349:6 *1743:B1 17.1393 
3 *349:6 *349:19 8.875 
4 *349:19 *1638:B 13.8 
5 *349:19 *1637:B 16.6571 
*END

*D_NET *350 0.00295583
*CONN
*I *1779:A2 I *D sky130_fd_sc_hd__a21bo_2
*I *1642:A3 I *D sky130_fd_sc_hd__a31oi_2
*I *1644:A3 I *D sky130_fd_sc_hd__a31o_2
*I *1637:X O *D sky130_fd_sc_hd__and2_2
*CAP
1 *1779:A2 0.000240334
2 *1642:A3 0
3 *1644:A3 0.00012589
4 *1637:X 0.000138513
5 *350:14 0.000173166
6 *350:10 0.000426123
7 *1779:A2 *1639:A 3.34366e-05
8 *1779:A2 *1778:B1 0.000371608
9 *1779:A2 *701:74 0
10 *1779:A2 *776:21 0.000326679
11 *1779:A2 *776:23 0.000117189
12 *1779:A2 *776:25 4.56437e-05
13 *350:10 *1639:A 0.000199449
14 *350:10 *1778:B1 0.000199449
15 *350:10 *2083:CLK 5.50052e-05
16 *350:10 *351:10 0.000126416
17 *350:10 *694:53 5.8996e-05
18 *350:14 *1644:B1 1.98839e-05
19 *1642:A2 *1644:A3 0.000242822
20 *1642:A2 *350:14 5.52238e-05
21 *1779:B1_N *1779:A2 0
22 *2015:SET_B *1779:A2 0
*RES
1 *1637:X *350:10 18.4071 
2 *350:10 *350:14 5.44643 
3 *350:14 *1644:A3 12.3179 
4 *350:14 *1642:A3 9.3 
5 *350:10 *1779:A2 21.2107 
*END

*D_NET *351 0.00310918
*CONN
*I *1778:B1 I *D sky130_fd_sc_hd__a22o_2
*I *1639:B I *D sky130_fd_sc_hd__nand2_2
*I *1638:Y O *D sky130_fd_sc_hd__nand2_2
*CAP
1 *1778:B1 0.000524702
2 *1639:B 0
3 *1638:Y 0.000194905
4 *351:10 0.000719607
5 *1778:B1 *1778:A1 3.82411e-05
6 *1778:B1 *775:14 0.000261446
7 *351:10 *1637:A 0.000124749
8 *351:10 *1638:A 1.84865e-05
9 *351:10 *694:53 6.02223e-05
10 *1637:B *351:10 1.25366e-05
11 *1778:A2 *1778:B1 0.000456811
12 *1779:A2 *1778:B1 0.000371608
13 *1779:B1_N *1778:B1 0
14 *1794:C1 *1778:B1 0
15 *2082:D *1778:B1 0
16 *347:10 *1778:B1 0
17 *350:10 *1778:B1 0.000199449
18 *350:10 *351:10 0.000126416
*RES
1 *1638:Y *351:10 18.4071 
2 *351:10 *1639:B 13.8 
3 *351:10 *1778:B1 27.1036 
*END

*D_NET *352 0.00131746
*CONN
*I *1641:A1 I *D sky130_fd_sc_hd__a21oi_2
*I *1643:A1 I *D sky130_fd_sc_hd__a21oi_2
*I *1639:Y O *D sky130_fd_sc_hd__nand2_2
*CAP
1 *1641:A1 0
2 *1643:A1 0.000216284
3 *1639:Y 0.000152802
4 *352:8 0.000369086
5 *1643:A1 *1641:A2 0.000389259
6 *1643:A1 *1641:B1 0
7 *1643:A1 *1935:A 0
8 *352:8 *1641:A2 5.33005e-05
9 *352:8 *1642:B1 0.000136727
*RES
1 *1639:Y *352:8 12.3179 
2 *352:8 *1643:A1 23.2821 
3 *352:8 *1641:A1 9.3 
*END

*D_NET *353 0.00163428
*CONN
*I *1643:A2 I *D sky130_fd_sc_hd__a21oi_2
*I *1641:A2 I *D sky130_fd_sc_hd__a21oi_2
*I *1640:X O *D sky130_fd_sc_hd__mux2_1
*CAP
1 *1643:A2 8.57283e-05
2 *1641:A2 0.000188026
3 *1640:X 0.000140633
4 *353:8 0.000414387
5 *1641:A2 *1642:B1 2.82057e-05
6 *1641:A2 *1644:B1 5.33978e-05
7 *1641:A2 *2083:D 0.000147594
8 *1641:A2 *701:74 0
9 *1643:A1 *1641:A2 0.000389259
10 *1643:B1 *353:8 0.000133754
11 *352:8 *1641:A2 5.33005e-05
*RES
1 *1640:X *353:8 11.9071 
2 *353:8 *1641:A2 24.1214 
3 *353:8 *1643:A2 10.6571 
*END

*D_NET *354 0.000766395
*CONN
*I *1642:B1 I *D sky130_fd_sc_hd__a31oi_2
*I *1641:Y O *D sky130_fd_sc_hd__a21oi_2
*CAP
1 *1642:B1 0.000207447
2 *1641:Y 0.000207447
3 *1642:B1 *2083:D 0.00010311
4 *1642:B1 *701:74 8.34581e-05
5 *1641:A2 *1642:B1 2.82057e-05
6 *352:8 *1642:B1 0.000136727
*RES
1 *1641:Y *1642:B1 32.1357 
*END

*D_NET *355 0.00105169
*CONN
*I *1644:B1 I *D sky130_fd_sc_hd__a31o_2
*I *1643:Y O *D sky130_fd_sc_hd__a21oi_2
*CAP
1 *1644:B1 0.000229271
2 *1643:Y 0.000229271
3 *1644:B1 *1644:A1 0.000224577
4 *1644:B1 *701:74 5.33978e-05
5 *1641:A2 *1644:B1 5.33978e-05
6 *1642:A2 *1644:B1 0.00014285
7 *2179:A *1644:B1 9.90431e-05
8 *350:14 *1644:B1 1.98839e-05
*RES
1 *1643:Y *1644:B1 33.1714 
*END

*D_NET *356 0.00152727
*CONN
*I *1676:C I *D sky130_fd_sc_hd__or4_2
*I *1645:Y O *D sky130_fd_sc_hd__nand2_2
*CAP
1 *1676:C 0.000299252
2 *1645:Y 0.000299252
3 *1676:C *1645:A 5.52238e-05
4 *1676:C *1647:A 9.91086e-05
5 *1676:C *1675:A 0.000402595
6 *1676:C *1676:D 3.34366e-05
7 *1676:C *1677:C 2.84494e-05
8 *1676:C *1840:D 0
9 *1676:C *2075:CLK 0
10 *1676:C *385:29 0
11 *1676:C *756:18 3.88035e-05
12 *1676:C *763:22 0.000149896
13 *1676:C *764:37 6.2589e-06
14 *1676:C *766:28 5.97719e-05
15 *1676:C *773:14 5.52238e-05
*RES
1 *1645:Y *1676:C 36.1536 
*END

*D_NET *357 0.000460462
*CONN
*I *1648:B I *D sky130_fd_sc_hd__and3_2
*I *1646:X O *D sky130_fd_sc_hd__and4_2
*CAP
1 *1648:B 0.000166198
2 *1646:X 0.000166198
3 *1648:B *1840:A 0
4 *1648:B *1840:C 4.79842e-05
5 *1648:B *1840:D 0
6 *1648:B *766:28 0
7 *1648:B *767:25 0
8 *1648:B *773:14 8.00806e-05
*RES
1 *1646:X *1648:B 31.0643 
*END

*D_NET *358 0.0013387
*CONN
*I *1648:C I *D sky130_fd_sc_hd__and3_2
*I *1647:X O *D sky130_fd_sc_hd__and3_2
*CAP
1 *1648:C 0.000301446
2 *1647:X 0.000301446
3 *1648:C *1647:A 5.33005e-05
4 *1648:C *1677:A 0.00010096
5 *1648:C *1677:C 0.000182694
6 *1648:C *1677:D 4.84999e-05
7 *1648:C *359:6 0.000105318
8 *1648:C *756:18 2.89114e-05
9 *1648:C *767:42 0.000216121
*RES
1 *1647:X *1648:C 25.85 
*END

*D_NET *359 0.00444971
*CONN
*I *1661:B I *D sky130_fd_sc_hd__and3_2
*I *1657:C I *D sky130_fd_sc_hd__nand4_2
*I *1682:A1 I *D sky130_fd_sc_hd__a21oi_2
*I *1648:X O *D sky130_fd_sc_hd__and3_2
*CAP
1 *1661:B 0.000519069
2 *1657:C 1.67282e-05
3 *1682:A1 0.000197633
4 *1648:X 0.000457452
5 *359:12 0.000458468
6 *359:6 0.00122063
7 *1657:C *674:36 0
8 *1661:B *1684:B 9.83388e-05
9 *1661:B *1684:C 1.68409e-05
10 *1661:B *1837:A 0.00020042
11 *1661:B *385:29 0
12 *1661:B *387:10 0.00012306
13 *1661:B *696:80 3.18676e-05
14 *1661:B *763:18 0.000103256
15 *1682:A1 *1682:B1 2.23592e-05
16 *1682:A1 *674:36 0.000300987
17 *359:6 *1657:A 2.14658e-05
18 *359:6 *1673:B 2.15245e-05
19 *359:6 *1677:A 5.33334e-05
20 *359:6 *1677:C 0.000180777
21 *359:6 *767:42 7.3237e-05
22 *359:12 *1657:A 5.5033e-05
23 *359:12 *1673:B 2.05823e-05
24 *359:12 *1681:C1 6.50467e-05
25 *359:12 *1682:B1 5.12625e-05
26 *359:12 *368:6 3.50166e-05
27 *1648:C *359:6 0.000105318
*RES
1 *1648:X *359:6 17.2286 
2 *359:6 *359:12 4.98214 
3 *359:12 *1682:A1 13.1393 
4 *359:12 *1657:C 9.72857 
5 *359:6 *1661:B 28.6393 
*END

*D_NET *360 0.00333516
*CONN
*I *1650:B I *D sky130_fd_sc_hd__and2_2
*I *1805:B I *D sky130_fd_sc_hd__xor2_2
*I *1804:A I *D sky130_fd_sc_hd__nor2_2
*I *1649:X O *D sky130_fd_sc_hd__and3_2
*CAP
1 *1650:B 0.000239147
2 *1805:B 9.5854e-05
3 *1804:A 8.50934e-05
4 *1649:X 0
5 *360:21 0.000915595
6 *360:6 0.000665687
7 *1650:B *1650:A 0.000300153
8 *1650:B *1925:A3 0
9 *1650:B *1925:B1 7.72233e-06
10 *1650:B *1928:A_N 5.49544e-05
11 *1650:B *2121:D 0.000119048
12 *1650:B *549:68 0
13 *1804:A *687:36 0.000125005
14 *1805:B *1805:A 9.84229e-05
15 *360:21 *1651:C 0
16 *360:21 *1806:A 0.000311156
17 *360:21 *2204:A 9.18273e-05
18 *360:21 *687:36 0.00017543
19 *360:21 *687:47 5.0063e-05
20 *360:21 *749:21 0
21 *2121:SET_B *1650:B 0
*RES
1 *1649:X *360:6 13.8 
2 *360:6 *1804:A 15.4429 
3 *360:6 *360:21 16.125 
4 *360:21 *1805:B 1.72321 
5 *360:21 *1650:B 23.6393 
*END

*D_NET *361 0.00247253
*CONN
*I *1808:C I *D sky130_fd_sc_hd__and3_2
*I *1807:A2 I *D sky130_fd_sc_hd__a21oi_2
*I *1650:X O *D sky130_fd_sc_hd__and2_2
*CAP
1 *1808:C 5.76855e-05
2 *1807:A2 0
3 *1650:X 0.000809048
4 *361:12 0.000866734
5 *1808:C *1807:B1 5.50052e-05
6 *1808:C *1808:B 0.00014183
7 *1808:C *459:43 3.49456e-06
8 *1808:C *750:23 1.33343e-05
9 *1808:C *751:49 4.17702e-05
10 *361:12 *1928:A_N 1.34232e-05
11 *361:12 *2010:A 0.00029936
12 *361:12 *751:8 0.000139893
13 *361:12 *751:14 1.46689e-05
14 *2121:SET_B *361:12 1.62812e-05
*RES
1 *1650:X *361:12 30.3 
2 *361:12 *1807:A2 9.3 
3 *361:12 *1808:C 11.0857 
*END

*D_NET *362 0.00435944
*CONN
*I *1659:B I *D sky130_fd_sc_hd__or4_2
*I *1656:A I *D sky130_fd_sc_hd__nor4_4
*I *1806:B I *D sky130_fd_sc_hd__xnor2_2
*I *1651:Y O *D sky130_fd_sc_hd__nand4_2
*CAP
1 *1659:B 0.000384171
2 *1656:A 0.000259614
3 *1806:B 0.000789654
4 *1651:Y 0.000265413
5 *362:26 0.00116803
6 *1656:A *1656:B 0
7 *1656:A *1659:C 3.69697e-05
8 *1656:A *1836:B 0
9 *1656:A *752:26 0.000148903
10 *1659:B *1659:C 7.52515e-05
11 *1659:B *1834:C 2.04825e-05
12 *1659:B *1836:A 0.000125724
13 *1659:B *1836:B 0.000222666
14 *1659:B *750:31 0.000241191
15 *1659:B *752:26 6.73939e-05
16 *1806:B *1651:C 0.000137138
17 *1806:B *747:25 0
18 *362:26 *1806:A 3.25872e-05
19 *362:26 *1834:A 8.68236e-05
20 *362:26 *751:16 0.000297433
*RES
1 *1651:Y *1806:B 32.8857 
2 *1806:B *362:26 20.8179 
3 *362:26 *1656:A 18.4071 
4 *362:26 *1659:B 20.8714 
*END

*D_NET *363 0.00185085
*CONN
*I *1653:B I *D sky130_fd_sc_hd__or4b_2
*I *1659:C I *D sky130_fd_sc_hd__or4_2
*I *1652:Y O *D sky130_fd_sc_hd__nand2b_2
*CAP
1 *1653:B 0
2 *1659:C 0.000245945
3 *1652:Y 0.000183101
4 *363:6 0.000429045
5 *1659:C *1836:B 0.000168624
6 *1659:C *1836:D_N 0.00022459
7 *1659:C *750:31 0.000197262
8 *1659:C *751:14 0.000246057
9 *363:6 *1653:A 7.43578e-06
10 *363:6 *752:20 2.07491e-05
11 *363:6 *752:26 1.58163e-05
12 *1656:A *1659:C 3.69697e-05
13 *1659:B *1659:C 7.52515e-05
*RES
1 *1652:Y *363:6 11.4786 
2 *363:6 *1659:C 25.2643 
3 *363:6 *1653:B 9.3 
*END

*D_NET *364 0.000259614
*CONN
*I *1656:B I *D sky130_fd_sc_hd__nor4_4
*I *1653:X O *D sky130_fd_sc_hd__or4b_2
*CAP
1 *1656:B 6.4873e-05
2 *1653:X 6.4873e-05
3 *1656:B *1836:B 0.000129868
4 *1656:A *1656:B 0
*RES
1 *1653:X *1656:B 29.2429 
*END

*D_NET *365 0.00471077
*CONN
*I *1658:A I *D sky130_fd_sc_hd__or3b_2
*I *1656:C I *D sky130_fd_sc_hd__nor4_4
*I *1836:B I *D sky130_fd_sc_hd__or4b_2
*I *1654:X O *D sky130_fd_sc_hd__or3b_2
*CAP
1 *1658:A 0.000113724
2 *1656:C 0
3 *1836:B 0.000376022
4 *1654:X 0.000236324
5 *365:20 0.000755665
6 *365:12 0.00072969
7 *1658:A *1658:B 0.000186669
8 *1658:A *1658:C_N 5.62995e-05
9 *1658:A *1816:B 4.88637e-05
10 *1658:A *1816:C 9.60939e-05
11 *1836:B *1809:A 0.0005642
12 *1836:B *2121:D 1.90303e-05
13 *1836:B *676:10 3.51442e-05
14 *1836:B *751:14 0.000133477
15 *365:12 *1658:B 3.34295e-05
16 *365:12 *1819:B1 0
17 *365:12 *2142:A 5.52238e-05
18 *365:12 *367:20 0
19 *365:12 *463:12 0
20 *365:12 *464:10 0
21 *365:12 *674:12 0
22 *365:12 *755:19 0.000125724
23 *365:20 *1816:A 0.000254542
24 *365:20 *1816:C 0.000272371
25 *365:20 *367:12 9.71197e-05
26 *1656:A *1836:B 0
27 *1656:B *1836:B 0.000129868
28 *1659:B *1836:B 0.000222666
29 *1659:C *1836:B 0.000168624
*RES
1 *1654:X *365:12 22.6036 
2 *365:12 *365:20 8.5 
3 *365:20 *1836:B 29.0321 
4 *365:20 *1656:C 9.3 
5 *365:12 *1658:A 12.7286 
*END

*D_NET *366 0.00296956
*CONN
*I *1659:D I *D sky130_fd_sc_hd__or4_2
*I *1835:B1 I *D sky130_fd_sc_hd__a311o_2
*I *1656:D I *D sky130_fd_sc_hd__nor4_4
*I *1655:X O *D sky130_fd_sc_hd__or4_2
*CAP
1 *1659:D 8.96162e-05
2 *1835:B1 0.000110545
3 *1656:D 0
4 *1655:X 0.000472364
5 *366:23 0.000538295
6 *366:10 0.000810498
7 *1659:D *1809:A 0.000175519
8 *1659:D *753:32 0
9 *1835:B1 *1835:A1 3.57366e-05
10 *1835:B1 *1835:C1 5.61433e-05
11 *1835:B1 *1836:A 2.42516e-05
12 *1835:B1 *751:14 1.24368e-05
13 *366:10 *1819:B1 0.000127177
14 *366:10 *1825:A 0
15 *366:10 *1825:B 0
16 *366:10 *367:12 9.56968e-05
17 *366:10 *463:8 0
18 *366:10 *463:12 0
19 *366:10 *676:10 0
20 *366:10 *687:18 1.01912e-05
21 *366:10 *744:21 6.05161e-06
22 *366:23 *1809:A 0
23 *366:23 *1836:A 6.81335e-05
24 *366:23 *463:8 0
25 *366:23 *676:10 0
26 *366:23 *752:16 3.25078e-05
27 *366:23 *753:32 0.00015134
28 *2114:D *366:10 0.000153054
*RES
1 *1655:X *366:10 23.5679 
2 *366:10 *1656:D 13.8 
3 *366:10 *366:23 10.9464 
4 *366:23 *1835:B1 11.4964 
5 *366:23 *1659:D 20.55 
*END

*D_NET *367 0.00343406
*CONN
*I *2266:A I *D sky130_fd_sc_hd__clkbuf_2
*I *2393:A I *D sky130_fd_sc_hd__clkbuf_2
*I *1818:A I *D sky130_fd_sc_hd__nor2_2
*I *1656:Y O *D sky130_fd_sc_hd__nor4_4
*CAP
1 *2266:A 0
2 *2393:A 0.00023689
3 *1818:A 0.000191551
4 *1656:Y 0.000129624
5 *367:20 0.000701
6 *367:12 0.000402183
7 *1818:A *1818:B 4.42174e-05
8 *1818:A *1819:B1 0.000370576
9 *1818:A *2160:A 8.0146e-05
10 *1818:A *464:10 7.85979e-05
11 *2393:A *2142:A 0.000446603
12 *2393:A *755:6 0.000226513
13 *2393:A *755:19 9.90367e-05
14 *367:12 *1825:B 0
15 *367:12 *676:10 4.57538e-05
16 *367:20 *1819:B1 0.000142797
17 *367:20 *464:10 4.57538e-05
18 *365:12 *367:20 0
19 *365:20 *367:12 9.71197e-05
20 *366:10 *367:12 9.56968e-05
*RES
1 *1656:Y *367:12 21.4964 
2 *367:12 *367:20 9.46429 
3 *367:20 *1818:A 19.8536 
4 *367:20 *2393:A 20.0857 
5 *367:12 *2266:A 9.3 
*END

*D_NET *368 0.00405472
*CONN
*I *1673:B I *D sky130_fd_sc_hd__and2b_2
*I *1681:C1 I *D sky130_fd_sc_hd__o211a_2
*I *1657:Y O *D sky130_fd_sc_hd__nand4_2
*CAP
1 *1673:B 0.000859421
2 *1681:C1 0.000438043
3 *1657:Y 3.11424e-05
4 *368:6 0.00132861
5 *1673:B *1657:A 7.53589e-05
6 *1673:B *1680:A 2.53558e-05
7 *1673:B *1681:B1 7.62718e-05
8 *1673:B *2075:CLK 2.60017e-05
9 *1673:B *2115:CLK 5.26625e-05
10 *1673:B *385:29 0.000370624
11 *1673:B *541:65 2.05422e-05
12 *1673:B *771:44 9.01238e-05
13 *1681:C1 *1681:A1 0.000109865
14 *1681:C1 *1681:A2 5.84075e-05
15 *1681:C1 *372:14 3.92854e-05
16 *1681:C1 *373:12 0.000101233
17 *1681:C1 *373:28 1.98637e-05
18 *2075:D *1673:B 0.000134613
19 *2076:D *1673:B 5.51273e-05
20 *359:6 *1673:B 2.15245e-05
21 *359:12 *1673:B 2.05823e-05
22 *359:12 *1681:C1 6.50467e-05
23 *359:12 *368:6 3.50166e-05
*RES
1 *1657:Y *368:6 10.0321 
2 *368:6 *1681:C1 25.925 
3 *368:6 *1673:B 34.1214 
*END

*D_NET *369 0.000649748
*CONN
*I *1660:A I *D sky130_fd_sc_hd__nor2_2
*I *1658:X O *D sky130_fd_sc_hd__or3b_2
*CAP
1 *1660:A 0.000240697
2 *1658:X 0.000240697
3 *1660:A *1658:C_N 0.000104561
4 *1660:A *1660:B 1.02504e-05
5 *1660:A *673:10 0
6 *1660:A *754:23 5.35423e-05
7 *2113:RESET_B *1660:A 0
*RES
1 *1658:X *1660:A 32.5107 
*END

*D_NET *370 0.00173612
*CONN
*I *1660:B I *D sky130_fd_sc_hd__nor2_2
*I *1659:X O *D sky130_fd_sc_hd__or4_2
*CAP
1 *1660:B 0.000805895
2 *1659:X 0.000805895
3 *1660:B *1814:A1 0
4 *1660:B *673:10 0
5 *1660:B *753:10 0.000108024
6 *1660:B *753:12 6.05161e-06
7 *1660:A *1660:B 1.02504e-05
*RES
1 *1659:X *1660:B 37.5821 
*END

*D_NET *371 0.00177879
*CONN
*I *1684:C I *D sky130_fd_sc_hd__and3_2
*I *1661:C I *D sky130_fd_sc_hd__and3_2
*I *1660:Y O *D sky130_fd_sc_hd__nor2_2
*CAP
1 *1684:C 0.000217015
2 *1661:C 0
3 *1660:Y 0.000422447
4 *371:6 0.000639462
5 *1684:C *387:10 7.8195e-05
6 *1684:C *696:80 2.14658e-05
7 *371:6 *696:61 9.87672e-05
8 *371:6 *696:80 0.000273822
9 *1661:B *1684:C 1.68409e-05
10 *2113:RESET_B *371:6 1.07719e-05
*RES
1 *1660:Y *371:6 16.4071 
2 *371:6 *1661:C 9.3 
3 *371:6 *1684:C 12.3179 
*END

*D_NET *372 0.00239909
*CONN
*I *1683:A I *D sky130_fd_sc_hd__nor2_2
*I *1662:C I *D sky130_fd_sc_hd__and3_2
*I *1681:A2 I *D sky130_fd_sc_hd__o211a_2
*I *1661:X O *D sky130_fd_sc_hd__and3_2
*CAP
1 *1683:A 0.000101819
2 *1662:C 3.92213e-05
3 *1681:A2 0.000160713
4 *1661:X 0.000181259
5 *372:14 0.000457369
6 *372:12 0.000540513
7 *1662:C *757:39 5.52302e-05
8 *1681:A2 *1673:A_N 0
9 *1681:A2 *1680:A 2.6304e-05
10 *1681:A2 *1681:A1 0.000127446
11 *1681:A2 *1681:B1 9.54798e-06
12 *1681:A2 *373:12 6.80607e-06
13 *1683:A *773:14 8.20547e-05
14 *372:12 *1661:A 6.07232e-05
15 *372:12 *696:80 1.93007e-05
16 *372:12 *770:19 1.76135e-05
17 *372:14 *1657:B 1.3142e-05
18 *372:14 *1680:A 5.39751e-05
19 *372:14 *1682:B1 0.00032246
20 *372:14 *1683:B 0
21 *372:14 *696:61 0
22 *372:14 *770:19 2.58997e-05
23 *372:14 *771:44 0
24 *1681:C1 *1681:A2 5.84075e-05
25 *1681:C1 *372:14 3.92854e-05
*RES
1 *1661:X *372:12 16.8179 
2 *372:12 *372:14 6.5 
3 *372:14 *1681:A2 17.2643 
4 *372:14 *1662:C 14.3357 
5 *372:12 *1683:A 15.9786 
*END

*D_NET *373 0.00286123
*CONN
*I *1674:A I *D sky130_fd_sc_hd__nor2_2
*I *1663:B I *D sky130_fd_sc_hd__and2_2
*I *1672:B I *D sky130_fd_sc_hd__xor2_2
*I *1662:X O *D sky130_fd_sc_hd__and3_2
*CAP
1 *1674:A 3.47861e-05
2 *1663:B 3.09567e-05
3 *1672:B 9.1551e-05
4 *1662:X 7.24715e-05
5 *373:28 0.000596525
6 *373:12 0.000581275
7 *1663:B *1663:A 9.87617e-05
8 *1663:B *374:6 4.73286e-05
9 *1663:B *696:20 0.000185197
10 *1672:B *1672:A 0.000129868
11 *1672:B *758:14 0.000154762
12 *1672:B *758:46 4.56437e-05
13 *1674:A *1674:B 6.17159e-05
14 *373:12 *1681:A1 1.45844e-05
15 *373:12 *1964:A 1.92656e-05
16 *373:28 *1674:B 0.000391146
17 *373:28 *1681:A1 1.71468e-05
18 *373:28 *1681:B1 7.70035e-05
19 *1681:A2 *373:12 6.80607e-06
20 *1681:C1 *373:12 0.000101233
21 *1681:C1 *373:28 1.98637e-05
22 *2075:D *1674:A 5.63217e-05
23 *2075:D *373:12 2.70125e-05
*RES
1 *1662:X *373:12 20.3625 
2 *373:12 *373:28 14.0089 
3 *373:28 *1672:B 7.35714 
4 *373:28 *1663:B 15.5679 
5 *373:12 *1674:A 10.3804 
*END

*D_NET *374 0.00482263
*CONN
*I *1669:A2 I *D sky130_fd_sc_hd__a21oi_2
*I *1664:C I *D sky130_fd_sc_hd__and3_2
*I *1671:B I *D sky130_fd_sc_hd__xor2_2
*I *1663:X O *D sky130_fd_sc_hd__and2_2
*CAP
1 *1669:A2 0.00011805
2 *1664:C 0.000437927
3 *1671:B 0.000133609
4 *1663:X 0.000249203
5 *374:19 0.000645989
6 *374:6 0.000472824
7 *1664:C *1664:A 0.000159687
8 *1664:C *1664:B 5.19842e-06
9 *1664:C *1965:A 0
10 *1664:C *2077:CLK 0.000111132
11 *1664:C *758:22 3.17148e-05
12 *1664:C *759:6 1.57931e-05
13 *1664:C *759:10 4.29179e-05
14 *1664:C *759:21 4.8813e-05
15 *1669:A2 *2077:CLK 2.21254e-05
16 *1669:A2 *541:65 2.98475e-05
17 *1669:A2 *758:22 0.000217892
18 *1671:B *695:18 0
19 *374:6 *1663:A 0.000139625
20 *374:6 *2201:A 0.000172687
21 *374:6 *695:18 5.52302e-05
22 *374:6 *696:20 0.00014129
23 *374:6 *758:22 0.000530191
24 *374:19 *2165:A 0.000443654
25 *374:19 *2261:A 9.22103e-06
26 *374:19 *696:20 1.92905e-05
27 *374:19 *758:22 0.000516926
28 *1663:B *374:6 4.73286e-05
29 *2076:RESET_B *1671:B 0
30 *2077:D *1671:B 4.46186e-06
31 *2078:RESET_B *1664:C 0
32 *2079:RESET_B *1664:C 0
*RES
1 *1663:X *374:6 17.2286 
2 *374:6 *1671:B 11.25 
3 *374:6 *374:19 9.55357 
4 *374:19 *1664:C 23.2821 
5 *374:19 *1669:A2 16.6571 
*END

*D_NET *375 0.00150392
*CONN
*I *1665:B I *D sky130_fd_sc_hd__nand2_2
*I *1667:B I *D sky130_fd_sc_hd__or2_2
*I *1670:A I *D sky130_fd_sc_hd__nor2_2
*I *1664:X O *D sky130_fd_sc_hd__and3_2
*CAP
1 *1665:B 0.000138772
2 *1667:B 0
3 *1670:A 0
4 *1664:X 5.78731e-05
5 *375:17 0.000332339
6 *375:6 0.00025144
7 *1665:B *1667:A 0.000144773
8 *1665:B *1668:B 5.5782e-05
9 *1665:B *2166:A 9.90367e-05
10 *1665:B *700:10 1.52978e-05
11 *1665:B *700:21 0.00011945
12 *1665:B *701:92 0
13 *375:17 *1667:A 3.71854e-05
14 *375:17 *1668:B 2.44318e-05
15 *2079:D *375:17 0.000227539
*RES
1 *1664:X *375:6 10.2464 
2 *375:6 *1670:A 9.3 
3 *375:6 *375:17 4.57143 
4 *375:17 *1667:B 9.3 
5 *375:17 *1665:B 22.8179 
*END

*D_NET *376 0.00299773
*CONN
*I *1666:B I *D sky130_fd_sc_hd__xnor2_2
*I *1668:A I *D sky130_fd_sc_hd__and2_2
*I *1665:Y O *D sky130_fd_sc_hd__nand2_2
*CAP
1 *1666:B 0
2 *1668:A 0.000525124
3 *1665:Y 0.000164158
4 *376:12 0.000689282
5 *1668:A *1666:A 1.02504e-05
6 *1668:A *1668:B 0.000852626
7 *1668:A *2130:A 3.20883e-05
8 *1668:A *542:10 5.33005e-05
9 *1668:A *700:21 7.04538e-05
10 *1668:A *700:46 0.000184335
11 *376:12 *2081:CLK 0.000225616
12 *376:12 *700:21 7.8327e-05
13 *376:12 *761:14 5.26091e-05
14 *2080:D *1668:A 5.95612e-05
*RES
1 *1665:Y *376:12 22.425 
2 *376:12 *1668:A 33.8179 
3 *376:12 *1666:B 9.3 
*END

*D_NET *377 0.00360781
*CONN
*I *1668:B I *D sky130_fd_sc_hd__and2_2
*I *1667:X O *D sky130_fd_sc_hd__or2_2
*CAP
1 *1668:B 0.00102274
2 *1667:X 0.00102274
3 *1668:B *1666:A 0.000129868
4 *1668:B *1670:B 0
5 *1668:B *2079:CLK 0
6 *1668:B *541:12 0
7 *1668:B *542:10 5.41794e-05
8 *1668:B *700:21 0
9 *1665:B *1668:B 5.5782e-05
10 *1668:A *1668:B 0.000852626
11 *2072:D *1668:B 8.75654e-05
12 *2079:D *1668:B 0.000224241
13 *2080:D *1668:B 0.00013364
14 *375:17 *1668:B 2.44318e-05
*RES
1 *1667:X *1668:B 49.5821 
*END

*D_NET *378 0.000312314
*CONN
*I *2187:A I *D sky130_fd_sc_hd__dlygate4sd3_1
*I *1669:Y O *D sky130_fd_sc_hd__a21oi_2
*CAP
1 *2187:A 7.81867e-05
2 *1669:Y 7.81867e-05
3 *2187:A *1669:B1 0.000150392
4 *2187:A *1678:C 0
5 *2187:A *383:12 5.54817e-06
*RES
1 *1669:Y *2187:A 29.5464 
*END

*D_NET *379 0.00159686
*CONN
*I *1674:B I *D sky130_fd_sc_hd__nor2_2
*I *1673:X O *D sky130_fd_sc_hd__and2b_2
*CAP
1 *1674:B 0.000537231
2 *1673:X 0.000537231
3 *1674:B *1681:B1 1.17341e-05
4 *1674:B *1964:A 6.16651e-06
5 *1674:B *2115:CLK 5.16342e-05
6 *1674:B *385:10 0
7 *1674:A *1674:B 6.17159e-05
8 *2075:D *1674:B 0
9 *2076:D *1674:B 0
10 *373:28 *1674:B 0.000391146
*RES
1 *1673:X *1674:B 37.225 
*END

*D_NET *380 0.00104553
*CONN
*I *1676:D I *D sky130_fd_sc_hd__or4_2
*I *1675:X O *D sky130_fd_sc_hd__or4b_2
*CAP
1 *1676:D 0.00021641
2 *1675:X 0.00021641
3 *1676:D *1675:A 1.81709e-05
4 *1676:D *1675:B 0.000123497
5 *1676:D *2075:CLK 0
6 *1676:D *769:35 0.000144015
7 *1676:D *771:16 0.000293588
8 *1676:C *1676:D 3.34366e-05
*RES
1 *1675:X *1676:D 32.5107 
*END

*D_NET *381 0.00124585
*CONN
*I *1679:A I *D sky130_fd_sc_hd__nor3_2
*I *1676:X O *D sky130_fd_sc_hd__or4_2
*CAP
1 *1679:A 0.000369063
2 *1676:X 0.000369063
3 *1679:A *1676:A 0.000228674
4 *1679:A *1680:B 0.00010162
5 *1679:A *1840:A 0
6 *1679:A *2075:CLK 8.25843e-06
7 *1679:A *758:22 0.000169167
*RES
1 *1676:X *1679:A 34.2607 
*END

*D_NET *382 0.00157547
*CONN
*I *1679:B I *D sky130_fd_sc_hd__nor3_2
*I *1677:X O *D sky130_fd_sc_hd__or4_2
*CAP
1 *1679:B 0.000424148
2 *1677:X 0.000424148
3 *1679:B *1675:A 0
4 *1679:B *1838:D_N 0.000147063
5 *1679:B *1840:C 0.000128054
6 *1679:B *757:14 0.000217218
7 *1679:B *757:24 3.34672e-05
8 *1679:B *768:12 0.000201374
9 *1679:B *769:35 0
*RES
1 *1677:X *1679:B 37.225 
*END

*D_NET *383 0.00257321
*CONN
*I *1840:A I *D sky130_fd_sc_hd__or4_2
*I *1679:C I *D sky130_fd_sc_hd__nor3_2
*I *1678:X O *D sky130_fd_sc_hd__or4_2
*CAP
1 *1840:A 0.000789568
2 *1679:C 0
3 *1678:X 0.000343143
4 *383:12 0.00113271
5 *1840:A *1676:A 0
6 *1840:A *1680:B 0
7 *1840:A *1687:A 0
8 *1840:A *1693:B 7.73662e-05
9 *1840:A *1840:C 0
10 *1840:A *389:14 0
11 *1840:A *535:245 4.95298e-05
12 *1840:A *535:259 3.43988e-06
13 *1840:A *542:10 0
14 *1840:A *767:25 0
15 *383:12 *1669:B1 1.30833e-05
16 *383:12 *1678:A 0.000100165
17 *383:12 *1678:B 7.4057e-06
18 *383:12 *1678:C 2.97389e-05
19 *383:12 *535:245 2.15121e-05
20 *1648:B *1840:A 0
21 *1679:A *1840:A 0
22 *2072:D *1840:A 0
23 *2187:A *383:12 5.54817e-06
*RES
1 *1678:X *383:12 19.5679 
2 *383:12 *1679:C 13.8 
3 *383:12 *1840:A 25.8179 
*END

*D_NET *384 0.00125935
*CONN
*I *1680:B I *D sky130_fd_sc_hd__nand2_2
*I *1679:Y O *D sky130_fd_sc_hd__nor3_2
*CAP
1 *1680:B 0.000408861
2 *1679:Y 0.000408861
3 *1680:B *1680:A 3.08382e-06
4 *1680:B *1838:A 0.000135028
5 *1680:B *1838:C_N 5.33005e-05
6 *1680:B *1838:D_N 0.00014285
7 *1680:B *757:24 5.74499e-06
8 *1679:A *1680:B 0.00010162
9 *1840:A *1680:B 0
*RES
1 *1679:Y *1680:B 34.4214 
*END

*D_NET *385 0.00716944
*CONN
*I *1701:A I *D sky130_fd_sc_hd__and2_2
*I *1698:A I *D sky130_fd_sc_hd__and3_2
*I *1705:A I *D sky130_fd_sc_hd__and3_2
*I *1681:B1 I *D sky130_fd_sc_hd__o211a_2
*I *1680:Y O *D sky130_fd_sc_hd__nand2_2
*CAP
1 *1701:A 0
2 *1698:A 0.00011482
3 *1705:A 0.000494102
4 *1681:B1 0.00054354
5 *1680:Y 6.31465e-05
6 *385:48 0.000339797
7 *385:29 0.00124827
8 *385:10 0.00113588
9 *1681:B1 *1673:A_N 0
10 *1681:B1 *2075:CLK 7.79937e-05
11 *1681:B1 *771:8 0.000134986
12 *1698:A *1690:A 5.33005e-05
13 *1698:A *1698:B 6.14702e-06
14 *1698:A *1701:B 0.000224741
15 *1698:A *764:14 5.50052e-05
16 *1698:A *764:25 0.00020097
17 *1705:A *1702:A1 0.000116955
18 *1705:A *1702:A2 5.45307e-05
19 *1705:A *1702:B1 9.82079e-05
20 *1705:A *387:14 0.000137983
21 *385:10 *1680:A 8.25843e-06
22 *385:10 *1964:A 6.05161e-06
23 *385:29 *1647:A 0
24 *385:29 *1837:A 8.73652e-05
25 *385:29 *2075:CLK 0.000288708
26 *385:29 *756:12 6.44845e-05
27 *385:29 *756:18 0.000207938
28 *385:29 *763:12 4.93999e-05
29 *385:29 *763:18 0.00013863
30 *385:29 *771:44 1.69115e-05
31 *385:48 *1699:B 7.43578e-06
32 *385:48 *1701:B 5.52238e-05
33 *385:48 *1702:A1 0.000140933
34 *385:48 *387:14 0.000162015
35 *385:48 *756:10 6.8646e-06
36 *385:48 *756:12 1.65558e-05
37 *385:48 *763:12 3.48235e-05
38 *1661:B *385:29 0
39 *1673:B *1681:B1 7.62718e-05
40 *1673:B *385:29 0.000370624
41 *1674:B *1681:B1 1.17341e-05
42 *1674:B *385:10 0
43 *1676:C *385:29 0
44 *1681:A2 *1681:B1 9.54798e-06
45 *2068:D *385:48 5.62995e-05
46 *2075:RESET_B *1681:B1 0.00017599
47 *373:28 *1681:B1 7.70035e-05
*RES
1 *1680:Y *385:10 14.7643 
2 *385:10 *1681:B1 30.9429 
3 *385:10 *385:29 14.6964 
4 *385:29 *1705:A 21.4607 
5 *385:29 *385:48 10.1786 
6 *385:48 *1698:A 22.1036 
7 *385:48 *1701:A 9.3 
*END

*D_NET *386 0.000839559
*CONN
*I *1683:B I *D sky130_fd_sc_hd__nor2_2
*I *1682:Y O *D sky130_fd_sc_hd__a21oi_2
*CAP
1 *1683:B 0.000152184
2 *1682:Y 0.000152184
3 *1683:B *674:36 3.1367e-05
4 *1683:B *696:61 0.000349061
5 *2074:RESET_B *1683:B 0.000154762
6 *372:14 *1683:B 0
*RES
1 *1682:Y *1683:B 32.5107 
*END

*D_NET *387 0.00491274
*CONN
*I *1703:A I *D sky130_fd_sc_hd__nor2_2
*I *1699:B I *D sky130_fd_sc_hd__nor2_2
*I *1685:C I *D sky130_fd_sc_hd__and3_2
*I *1684:X O *D sky130_fd_sc_hd__and3_2
*CAP
1 *1703:A 0.000306256
2 *1699:B 0.000109366
3 *1685:C 0.000406579
4 *1684:X 0.000167236
5 *387:14 0.000769734
6 *387:10 0.000727281
7 *1685:C *1685:A 0.00010096
8 *1685:C *756:12 0
9 *1685:C *764:27 7.83659e-05
10 *1685:C *764:53 3.42639e-05
11 *1703:A *1702:B1 0.000372839
12 *1703:A *1956:A 0.000215381
13 *1703:A *696:80 9.83442e-05
14 *1703:A *763:10 0.000113924
15 *1703:A *763:12 0.000269573
16 *387:10 *1684:A 5.52238e-05
17 *387:10 *1684:B 1.56e-05
18 *387:10 *696:80 0
19 *387:10 *763:12 0.000114316
20 *387:10 *763:18 2.95642e-05
21 *387:14 *1701:B 5.71472e-05
22 *387:14 *1702:A1 0.000266479
23 *1661:B *387:10 0.00012306
24 *1684:C *387:10 7.8195e-05
25 *1705:A *387:14 0.000137983
26 *2066:RESET_B *1703:A 9.56193e-05
27 *385:48 *1699:B 7.43578e-06
28 *385:48 *387:14 0.000162015
*RES
1 *1684:X *387:10 18.3357 
2 *387:10 *387:14 10.375 
3 *387:14 *1685:C 23.9964 
4 *387:14 *1699:B 11.0857 
5 *387:10 *1703:A 22.6214 
*END

*D_NET *388 0.00156781
*CONN
*I *1695:B I *D sky130_fd_sc_hd__nor2_2
*I *1686:B I *D sky130_fd_sc_hd__and2_2
*I *1685:X O *D sky130_fd_sc_hd__and3_2
*CAP
1 *1695:B 0.000186103
2 *1686:B 9.87314e-05
3 *1685:X 0.000222901
4 *388:6 0.000507734
5 *1686:B *1696:A 7.64282e-05
6 *1686:B *1696:B 5.54183e-05
7 *1686:B *542:43 0.00015234
8 *1686:B *542:60 7.10552e-05
9 *1686:B *542:73 4.58703e-05
10 *1686:B *765:16 0
11 *1686:B *767:25 0
12 *1695:B *1959:A 0
13 *1695:B *542:73 6.42242e-05
14 *1695:B *766:14 9.25014e-06
15 *388:6 *1696:A 2.89016e-05
16 *2070:D *1695:B 4.51611e-05
17 *2070:D *388:6 3.69047e-06
*RES
1 *1685:X *388:6 11.8893 
2 *388:6 *1686:B 21.7643 
3 *388:6 *1695:B 21.3 
*END

*D_NET *389 0.00274374
*CONN
*I *1696:A I *D sky130_fd_sc_hd__nor2_2
*I *1694:B I *D sky130_fd_sc_hd__xor2_2
*I *1688:C I *D sky130_fd_sc_hd__and3_2
*I *1687:B I *D sky130_fd_sc_hd__nand2_2
*I *1686:X O *D sky130_fd_sc_hd__and2_2
*CAP
1 *1696:A 0.000109444
2 *1694:B 0
3 *1688:C 0.00031647
4 *1687:B 9.28163e-05
5 *1686:X 0.000237132
6 *389:14 0.000540434
7 *389:10 0.000258836
8 *1687:B *1648:A 7.77652e-05
9 *1688:C *1648:A 0.000122091
10 *1688:C *2205:A 0.000399835
11 *1696:A *1696:B 8.6229e-06
12 *1696:A *765:16 0
13 *389:10 *542:43 0.000128146
14 *389:10 *766:18 9.90367e-05
15 *389:10 *767:25 0
16 *389:14 *1687:A 0
17 *389:14 *1693:B 0
18 *389:14 *542:43 0.000247786
19 *389:14 *767:25 0
20 *1686:B *1696:A 7.64282e-05
21 *1840:A *389:14 0
22 *388:6 *1696:A 2.89016e-05
*RES
1 *1686:X *389:10 16.3893 
2 *389:10 *389:14 7.66071 
3 *389:14 *1687:B 11.0857 
4 *389:14 *1688:C 15.5857 
5 *389:10 *1694:B 4.5 
6 *1686:X *1696:A 30.0821 
*END

*D_NET *390 0.000507403
*CONN
*I *1693:B I *D sky130_fd_sc_hd__xnor2_2
*I *1687:Y O *D sky130_fd_sc_hd__nand2_2
*CAP
1 *1693:B 0.000143591
2 *1687:Y 0.000143591
3 *1693:B *1693:A 0
4 *1693:B *542:14 0.000142856
5 *1693:B *542:43 0
6 *1840:A *1693:B 7.73662e-05
7 *389:14 *1693:B 0
*RES
1 *1687:Y *1693:B 30.9036 
*END

*D_NET *391 0.000298479
*CONN
*I *1692:B I *D sky130_fd_sc_hd__xor2_2
*I *1688:X O *D sky130_fd_sc_hd__and3_2
*CAP
1 *1692:B 7.18583e-05
2 *1688:X 7.18583e-05
3 *1692:B *699:58 0.000154762
4 *1692:B *700:59 0
*RES
1 *1688:X *1692:B 20.2464 
*END

*D_NET *392 0.000805947
*CONN
*I *1705:B I *D sky130_fd_sc_hd__and3_2
*I *1689:Y O *D sky130_fd_sc_hd__nand2_2
*CAP
1 *1705:B 0.00018691
2 *1689:Y 0.00018691
3 *1705:B *1702:A2 6.71657e-05
4 *1705:B *2067:CLK 3.31595e-05
5 *1705:B *540:79 0.000128154
6 *1705:B *773:20 0.000150348
7 *2066:D *1705:B 5.33005e-05
*RES
1 *1689:Y *1705:B 31.3143 
*END

*D_NET *393 0.00134028
*CONN
*I *1700:A I *D sky130_fd_sc_hd__nor2_2
*I *1697:B I *D sky130_fd_sc_hd__or2_2
*I *1691:B I *D sky130_fd_sc_hd__nand2_2
*I *1690:X O *D sky130_fd_sc_hd__and4_2
*CAP
1 *1700:A 0.000121124
2 *1697:B 0
3 *1691:B 0
4 *1690:X 0.000279194
5 *393:17 0.000173072
6 *393:10 0.000331141
7 *1700:A *1691:A 4.77002e-05
8 *1700:A *1697:A 5.46383e-06
9 *1700:A *1701:B 0.000141941
10 *1700:A *765:60 9.87041e-05
11 *393:17 *1691:A 0.000141941
*RES
1 *1690:X *393:10 22.675 
2 *393:10 *1691:B 9.3 
3 *393:10 *393:17 1.35714 
4 *393:17 *1697:B 9.3 
5 *393:17 *1700:A 12.7464 
*END

*D_NET *394 0.00175852
*CONN
*I *1698:B I *D sky130_fd_sc_hd__and3_2
*I *1691:Y O *D sky130_fd_sc_hd__nand2_2
*CAP
1 *1698:B 0.000527538
2 *1691:Y 0.000527538
3 *1698:B *1691:A 0.000123932
4 *1698:B *1698:C 0.000408436
5 *1698:B *1700:B 6.36612e-05
6 *1698:B *764:14 1.92905e-05
7 *1698:B *764:25 4.54951e-05
8 *1698:B *765:60 3.64864e-05
9 *1698:A *1698:B 6.14702e-06
*RES
1 *1691:Y *1698:B 37.35 
*END

*D_NET *395 0.000606151
*CONN
*I *1696:B I *D sky130_fd_sc_hd__nor2_2
*I *1695:Y O *D sky130_fd_sc_hd__nor2_2
*CAP
1 *1696:B 0.000254801
2 *1695:Y 0.000254801
3 *1696:B *542:73 3.25078e-05
4 *1696:B *765:10 0
5 *1686:B *1696:B 5.54183e-05
6 *1696:A *1696:B 8.6229e-06
*RES
1 *1695:Y *1696:B 31.0107 
*END

*D_NET *396 0.00115048
*CONN
*I *1698:C I *D sky130_fd_sc_hd__and3_2
*I *1697:X O *D sky130_fd_sc_hd__or2_2
*CAP
1 *1698:C 0.00013289
2 *1697:X 0.00013289
3 *1698:C *1700:B 0.000290865
4 *1698:C *765:60 0.000185403
5 *1698:B *1698:C 0.000408436
*RES
1 *1697:X *1698:C 33.1357 
*END

*D_NET *397 0.00112179
*CONN
*I *1700:B I *D sky130_fd_sc_hd__nor2_2
*I *1699:Y O *D sky130_fd_sc_hd__nor2_2
*CAP
1 *1700:B 0.000284873
2 *1699:Y 0.000284873
3 *1700:B *764:14 0.000197523
4 *1700:B *764:25 0
5 *1700:B *765:10 0
6 *1700:B *765:60 0
7 *1698:B *1700:B 6.36612e-05
8 *1698:C *1700:B 0.000290865
*RES
1 *1699:Y *1700:B 35.0107 
*END

*D_NET *398 0.00181877
*CONN
*I *1701:B I *D sky130_fd_sc_hd__and2_2
*I *1700:Y O *D sky130_fd_sc_hd__nor2_2
*CAP
1 *1701:B 0.000509907
2 *1700:Y 0.000509907
3 *1701:B *756:10 0
4 *1701:B *764:25 6.37408e-06
5 *1701:B *764:27 4.46186e-06
6 *1701:B *765:60 1.62025e-05
7 *1698:A *1701:B 0.000224741
8 *1700:A *1701:B 0.000141941
9 *2068:D *1701:B 0.000292862
10 *385:48 *1701:B 5.52238e-05
11 *387:14 *1701:B 5.71472e-05
*RES
1 *1700:Y *1701:B 38.225 
*END

*D_NET *399 0.00097626
*CONN
*I *1703:B I *D sky130_fd_sc_hd__nor2_2
*I *1702:Y O *D sky130_fd_sc_hd__a21oi_2
*CAP
1 *1703:B 0.000245042
2 *1702:Y 0.000245042
3 *1703:B *1690:D 9.6365e-05
4 *1703:B *1702:A1 9.77414e-05
5 *1703:B *696:80 0.000190891
6 *2066:D *1703:B 0
7 *2066:RESET_B *1703:B 0.000101178
*RES
1 *1702:Y *1703:B 33.4571 
*END

*D_NET *400 0.00105347
*CONN
*I *1705:C I *D sky130_fd_sc_hd__and3_2
*I *1704:X O *D sky130_fd_sc_hd__or2_2
*CAP
1 *1705:C 0.000190841
2 *1704:X 0.000190841
3 *1705:C *1702:A2 5.33433e-05
4 *1705:C *1704:A 3.18309e-05
5 *1705:C *696:80 0
6 *1705:C *773:20 0.000386879
7 *2066:D *1705:C 0.000199736
*RES
1 *1704:X *1705:C 33.5286 
*END

*D_NET *401 0.00255047
*CONN
*I *1707:B I *D sky130_fd_sc_hd__nor2_2
*I *1731:B1 I *D sky130_fd_sc_hd__a21oi_2
*I *1706:X O *D sky130_fd_sc_hd__and4b_2
*CAP
1 *1707:B 0.000287729
2 *1731:B1 0.000312389
3 *1706:X 0
4 *401:4 0.000600118
5 *1707:B *1606:A 3.41517e-06
6 *1707:B *1706:D 1.94879e-05
7 *1707:B *1707:A 4.89442e-05
8 *1707:B *1728:B1 7.54868e-05
9 *1707:B *1786:A1 9.9129e-05
10 *1707:B *402:8 3.18747e-05
11 *1707:B *705:57 4.82222e-05
12 *1707:B *733:20 0.000141039
13 *1731:B1 *1732:A1 9.44031e-05
14 *1731:B1 *724:16 0.000264934
15 *1706:B *1707:B 1.30241e-05
16 *1706:B *1731:B1 4.58194e-05
17 *322:14 *1707:B 1.24368e-05
18 *329:12 *1731:B1 0.00045202
*RES
1 *1706:X *401:4 9.3 
2 *401:4 *1731:B1 25.9607 
3 *401:4 *1707:B 24.3893 
*END

*D_NET *402 0.004566
*CONN
*I *1713:A2 I *D sky130_fd_sc_hd__o31ai_2
*I *1711:B1_N I *D sky130_fd_sc_hd__o21ba_2
*I *1710:A2 I *D sky130_fd_sc_hd__o21ba_2
*I *1707:Y O *D sky130_fd_sc_hd__nor2_2
*CAP
1 *1713:A2 8.81887e-05
2 *1711:B1_N 0.0001585
3 *1710:A2 9.92713e-05
4 *1707:Y 0.000408615
5 *402:10 0.0002914
6 *402:8 0.000530433
7 *1710:A2 *1711:A1 5.52302e-05
8 *1710:A2 *666:16 0.000169838
9 *1710:A2 *679:23 9.25014e-06
10 *1710:A2 *679:48 0.000136156
11 *1710:A2 *705:22 9.80173e-05
12 *1711:B1_N *1711:A2 5.52302e-05
13 *1711:B1_N *1853:A 0.000307343
14 *1711:B1_N *1858:A1 5.33005e-05
15 *1711:B1_N *1858:B1 0.000132967
16 *1711:B1_N *1860:B 1.02821e-05
17 *1713:A2 *1713:B1 2.59355e-05
18 *1713:A2 *404:16 2.59355e-05
19 *1713:A2 *666:10 0.000159689
20 *1713:A2 *679:48 0.000168939
21 *402:8 *1606:A 0.000228514
22 *402:8 *1707:A 0.00035238
23 *402:8 *1787:B 2.95726e-05
24 *402:8 *1853:A 4.85243e-05
25 *402:8 *1853:B 6.56643e-05
26 *402:8 *1858:A1 4.58194e-05
27 *402:8 *1858:A2 0.00010096
28 *402:8 *483:18 0.000265447
29 *402:8 *705:57 1.15172e-05
30 *402:10 *666:10 5.55449e-05
31 *402:10 *666:16 2.09413e-05
32 *402:10 *679:48 7.64863e-05
33 *1707:B *402:8 3.18747e-05
34 *2063:RESET_B *402:8 5.71472e-05
35 *254:14 *1710:A2 0.00018077
36 *322:14 *402:8 1.03105e-05
*RES
1 *1707:Y *402:8 24.1929 
2 *402:8 *402:10 1.03571 
3 *402:10 *1710:A2 17.5143 
4 *402:10 *1711:B1_N 18.05 
5 *402:8 *1713:A2 16.5857 
*END

*D_NET *403 0.00215608
*CONN
*I *1709:B I *D sky130_fd_sc_hd__nor2_2
*I *1728:B1 I *D sky130_fd_sc_hd__a21oi_2
*I *1708:X O *D sky130_fd_sc_hd__and4b_2
*CAP
1 *1709:B 9.22687e-05
2 *1728:B1 0.00055353
3 *1708:X 0.000645799
4 *1709:B *1709:A 3.62509e-05
5 *1728:B1 *1708:D 4.77415e-05
6 *1728:B1 *1709:A 2.05823e-05
7 *1728:B1 *1729:A2 0.000145674
8 *1728:B1 *1732:A1 0.000214562
9 *1728:B1 *2057:CLK 0.000110177
10 *1728:B1 *724:16 8.88933e-05
11 *1706:B *1728:B1 0.00012511
12 *1707:B *1728:B1 7.54868e-05
*RES
1 *1708:X *1728:B1 38.0643 
2 *1708:X *1709:B 20.3857 
*END

*D_NET *404 0.0042672
*CONN
*I *1713:A3 I *D sky130_fd_sc_hd__o31ai_2
*I *1711:A2 I *D sky130_fd_sc_hd__o21ba_2
*I *1710:B1_N I *D sky130_fd_sc_hd__o21ba_2
*I *1709:Y O *D sky130_fd_sc_hd__nor2_2
*CAP
1 *1713:A3 0
2 *1711:A2 1.16062e-05
3 *1710:B1_N 0.000126517
4 *1709:Y 0.00086946
5 *404:22 0.000314164
6 *404:16 0.0010455
7 *1710:B1_N *1711:A1 5.02112e-05
8 *1710:B1_N *1853:A 4.15183e-05
9 *1710:B1_N *447:26 3.43988e-06
10 *1710:B1_N *666:16 4.87953e-05
11 *1711:A2 *1858:B1 5.52302e-05
12 *404:16 *1713:A1 5.33433e-05
13 *404:16 *1713:B1 8.43913e-05
14 *404:16 *1853:B 0.000230807
15 *404:16 *413:31 0.000171913
16 *404:16 *413:41 0.000469903
17 *404:16 *454:14 3.14193e-05
18 *404:22 *1711:A1 1.89507e-06
19 *404:22 *1713:B1 7.02611e-05
20 *404:22 *1853:B 1.74352e-05
21 *404:22 *447:26 1.77809e-05
22 *404:22 *483:61 0.000148189
23 *404:22 *492:43 7.97875e-05
24 *404:22 *666:10 0
25 *1711:B1_N *1711:A2 5.52302e-05
26 *1712:B1 *404:16 2.81946e-05
27 *1713:A2 *404:16 2.59355e-05
28 *2064:D *1710:B1_N 2.99773e-05
29 *2065:D *1710:B1_N 5.59013e-05
30 *254:14 *1710:B1_N 9.41642e-05
31 *322:14 *404:16 3.42301e-05
*RES
1 *1709:Y *404:16 34.9607 
2 *404:16 *404:22 8.71429 
3 *404:22 *1710:B1_N 16.9964 
4 *404:22 *1711:A2 14.3357 
5 *404:16 *1713:A3 9.3 
*END

*D_NET *405 0.00287665
*CONN
*I *1713:B1 I *D sky130_fd_sc_hd__o31ai_2
*I *1712:X O *D sky130_fd_sc_hd__a31o_2
*CAP
1 *1713:B1 0.00101131
2 *1712:X 0.00101131
3 *1713:B1 *1713:A1 5.33433e-05
4 *1713:B1 *413:31 3.67252e-05
5 *1713:B1 *413:41 4.21568e-05
6 *1713:B1 *454:14 0.000479652
7 *1713:B1 *492:43 8.25843e-06
8 *1713:A2 *1713:B1 2.59355e-05
9 *2089:D *1713:B1 5.33005e-05
10 *404:16 *1713:B1 8.43913e-05
11 *404:22 *1713:B1 7.02611e-05
*RES
1 *1712:X *1713:B1 31.8857 
*END

*D_NET *406 0.000763884
*CONN
*I *1795:A2 I *D sky130_fd_sc_hd__a21bo_2
*I *1714:Y O *D sky130_fd_sc_hd__nand2b_2
*CAP
1 *1795:A2 0.000185559
2 *1714:Y 0.000185559
3 *1795:A2 *1714:B 6.14321e-05
4 *1795:A2 *1985:A 0.000189644
5 *2096:RESET_B *1795:A2 0.000141689
*RES
1 *1714:Y *1795:A2 33.225 
*END

*D_NET *407 0.00357163
*CONN
*I *1794:B1 I *D sky130_fd_sc_hd__a211o_2
*I *1718:B1 I *D sky130_fd_sc_hd__a21o_2
*I *1716:A I *D sky130_fd_sc_hd__inv_2
*I *1715:X O *D sky130_fd_sc_hd__and3b_2
*CAP
1 *1794:B1 0.000356176
2 *1718:B1 1.40568e-05
3 *1716:A 0.000239751
4 *1715:X 0.000377592
5 *407:25 0.000461638
6 *407:12 0.000708749
7 *1716:A *537:22 0.000134773
8 *1716:A *537:28 1.74352e-05
9 *1718:B1 *1951:A 2.89016e-05
10 *1718:B1 *2092:CLK 5.52238e-05
11 *1794:B1 *1717:C 7.8327e-05
12 *1794:B1 *1718:A1 0.000175519
13 *1794:B1 *1741:B1 7.83366e-05
14 *1794:B1 *1794:A2 0.00012839
15 *1794:B1 *2152:A 9.69119e-06
16 *1794:B1 *2162:A 0
17 *1794:B1 *537:10 4.43698e-05
18 *1794:B1 *537:14 6.85697e-05
19 *1794:B1 *537:22 7.79781e-06
20 *1794:B1 *556:88 0
21 *1794:B1 *721:36 0.000129185
22 *407:12 *1714:B 1.00887e-05
23 *407:12 *1740:B2 0
24 *407:12 *2162:A 0
25 *407:12 *421:10 0
26 *407:12 *706:12 0
27 *407:12 *722:10 0.000139954
28 *407:12 *722:12 0.000115591
29 *407:25 *1718:A1 9.25014e-06
30 *407:25 *2162:A 0
31 *407:25 *537:22 9.11365e-06
32 *2054:RESET_B *407:12 0.000112203
33 *2062:D *407:12 1.76039e-05
34 *2062:D *407:25 4.33438e-05
35 *2062:RESET_B *407:12 0
*RES
1 *1715:X *407:12 21.8714 
2 *407:12 *1716:A 17.1214 
3 *407:12 *407:25 1.64286 
4 *407:25 *1718:B1 14.3357 
5 *407:25 *1794:B1 23.6393 
*END

*D_NET *408 0.00073418
*CONN
*I *1740:B2 I *D sky130_fd_sc_hd__o22a_2
*I *1716:Y O *D sky130_fd_sc_hd__inv_2
*CAP
1 *1740:B2 0.000256349
2 *1716:Y 0.000256349
3 *1740:B2 *1795:B1_N 0.000104887
4 *1740:B2 *421:10 6.32522e-05
5 *1740:B2 *537:28 5.33433e-05
6 *407:12 *1740:B2 0
*RES
1 *1716:Y *1740:B2 32.6179 
*END

*D_NET *409 0.000317414
*CONN
*I *1718:A2 I *D sky130_fd_sc_hd__a21o_2
*I *1717:Y O *D sky130_fd_sc_hd__nand3_2
*CAP
1 *1718:A2 8.25372e-05
2 *1717:Y 8.25372e-05
3 *1718:A2 *1718:A1 0.00015234
4 *1718:A2 *2162:A 0
*RES
1 *1717:Y *1718:A2 29.5464 
*END

*D_NET *410 0.00153143
*CONN
*I *1720:A2 I *D sky130_fd_sc_hd__a21boi_2
*I *1790:A I *D sky130_fd_sc_hd__or3b_2
*I *1719:X O *D sky130_fd_sc_hd__and3_2
*CAP
1 *1720:A2 8.88281e-05
2 *1790:A 0.000226901
3 *1719:X 0.000207763
4 *410:8 0.000523492
5 *1720:A2 *1610:A 2.12733e-05
6 *1720:A2 *2100:CLK 5.50052e-05
7 *1790:A *1610:A 4.54426e-05
8 *1790:A *415:23 7.25873e-06
9 *1790:A *544:40 2.31084e-05
10 *410:8 *544:34 4.29272e-05
11 *410:8 *544:36 6.13609e-05
12 *410:8 *544:40 3.67279e-06
13 *2087:D *1790:A 8.33663e-05
14 *326:6 *1720:A2 0.000141036
*RES
1 *1719:X *410:8 17.5679 
2 *410:8 *1790:A 17.6036 
3 *410:8 *1720:A2 15.9964 
*END

*D_NET *411 0.00299669
*CONN
*I *1833:A I *D sky130_fd_sc_hd__nor2_2
*I *1725:B I *D sky130_fd_sc_hd__nor3_2
*I *1727:A1 I *D sky130_fd_sc_hd__o21a_2
*I *1723:Y O *D sky130_fd_sc_hd__a21oi_2
*CAP
1 *1833:A 0
2 *1725:B 0.000162622
3 *1727:A1 3.2129e-05
4 *1723:Y 0.00062695
5 *411:16 0.000536174
6 *411:8 0.000968373
7 *1725:B *1790:C_N 1.6815e-05
8 *1725:B *2099:CLK 9.67754e-05
9 *1725:B *2157:A 0.00010919
10 *1727:A1 *2099:CLK 9.84673e-05
11 *1727:A1 *680:10 2.85321e-05
12 *411:8 *1723:A1 1.33343e-05
13 *411:8 *1723:A2 2.27416e-05
14 *411:8 *1751:B 1.21289e-05
15 *411:16 *1726:B 1.06172e-05
16 *411:16 *1833:B 0
17 *411:16 *680:10 3.54498e-05
18 *411:16 *680:14 5.12699e-05
19 *2087:SET_B *411:16 0.000175123
*RES
1 *1723:Y *411:8 17.1393 
2 *411:8 *411:16 16.1607 
3 *411:16 *1727:A1 10.2464 
4 *411:16 *1725:B 22.1036 
5 *411:8 *1833:A 9.3 
*END

*D_NET *412 0.00291955
*CONN
*I *1832:A I *D sky130_fd_sc_hd__nor2_2
*I *1725:C I *D sky130_fd_sc_hd__nor3_2
*I *1727:A2 I *D sky130_fd_sc_hd__o21a_2
*I *1724:Y O *D sky130_fd_sc_hd__a21oi_2
*CAP
1 *1832:A 2.13113e-05
2 *1725:C 0.000102876
3 *1727:A2 9.39714e-05
4 *1724:Y 0.000230137
5 *412:14 0.000509403
6 *412:8 0.000564004
7 *1725:C *2157:A 0.000137832
8 *1725:C *2255:A 6.23278e-05
9 *1727:A2 *2099:CLK 0.000352381
10 *1727:A2 *2255:A 0.000267137
11 *412:8 *1724:A1 1.32293e-05
12 *412:8 *731:68 0.000110761
13 *412:14 *1832:B 0.000141941
14 *412:14 *1833:B 0.000137639
15 *412:14 *2157:A 5.36422e-05
16 *412:14 *731:12 2.24718e-05
17 *412:14 *731:68 3.24049e-05
18 *2100:D *1725:C 6.14702e-06
19 *2100:D *412:14 5.99365e-05
*RES
1 *1724:Y *412:8 13.55 
2 *412:8 *412:14 10.875 
3 *412:14 *1727:A2 17.2107 
4 *412:14 *1725:C 16.2821 
5 *412:8 *1832:A 9.72857 
*END

*D_NET *413 0.0108793
*CONN
*I *1789:B1_N I *D sky130_fd_sc_hd__o21bai_2
*I *1781:A_N I *D sky130_fd_sc_hd__and2b_2
*I *1780:B I *D sky130_fd_sc_hd__or2_2
*I *1726:B I *D sky130_fd_sc_hd__and2_2
*I *1725:Y O *D sky130_fd_sc_hd__nor3_2
*CAP
1 *1789:B1_N 2.22994e-05
2 *1781:A_N 0.00150507
3 *1780:B 3.64422e-05
4 *1726:B 0.000458681
5 *1725:Y 0.000114544
6 *413:41 0.00214467
7 *413:31 0.00128359
8 *413:8 0.00123136
9 *1726:B *1610:A 1.24912e-05
10 *1726:B *1790:C_N 8.91963e-06
11 *1726:B *2057:CLK 1.34631e-05
12 *1726:B *2099:CLK 4.37451e-05
13 *1726:B *414:12 5.49544e-05
14 *1726:B *544:40 0.000116154
15 *1726:B *731:12 1.46689e-05
16 *1726:B *731:41 0.000483965
17 *1780:B *1780:A 2.89016e-05
18 *1781:A_N *1771:B 0
19 *1781:A_N *1788:A2 0.000137473
20 *1781:A_N *2242:A 2.05413e-05
21 *1781:A_N *446:12 0
22 *1781:A_N *681:36 0.000217466
23 *1781:A_N *681:50 1.2012e-05
24 *1781:A_N *736:12 5.33005e-05
25 *1789:B1_N *454:14 0
26 *413:8 *1790:C_N 3.46801e-05
27 *413:31 *1712:A1 0.000199286
28 *413:31 *1712:A3 7.8195e-05
29 *413:31 *1719:B 7.79781e-06
30 *413:31 *1720:B1_N 0
31 *413:31 *1790:C_N 4.41329e-06
32 *413:31 *544:34 8.50436e-05
33 *413:31 *544:36 9.21263e-05
34 *413:31 *544:40 7.88303e-05
35 *413:31 *732:22 0.000126439
36 *413:41 *1788:B1 0
37 *413:41 *1881:A 0
38 *413:41 *2242:A 0.000157221
39 *413:41 *2294:A 0
40 *413:41 *454:14 0.000335376
41 *413:41 *705:10 0.000123295
42 *413:41 *733:16 0.000138005
43 *1713:B1 *413:31 3.67252e-05
44 *1713:B1 *413:41 4.21568e-05
45 *1725:A *1726:B 3.02801e-05
46 *1725:A *413:31 6.23278e-05
47 *1760:B1 *1781:A_N 0
48 *1831:A *413:31 0.000310307
49 *2061:D *413:31 0.000174233
50 *2063:RESET_B *413:41 1.17968e-05
51 *2086:D *1780:B 5.52238e-05
52 *2089:D *413:41 2.84109e-05
53 *325:10 *1781:A_N 0
54 *325:10 *413:41 0
55 *404:16 *413:31 0.000171913
56 *404:16 *413:41 0.000469903
57 *411:16 *1726:B 1.06172e-05
*RES
1 *1725:Y *413:8 15.1571 
2 *413:8 *1726:B 23.8714 
3 *413:8 *413:31 22.0179 
4 *413:31 *413:41 20.0536 
5 *413:41 *1780:B 14.7643 
6 *413:41 *1781:A_N 26.3162 
7 *413:31 *1789:B1_N 9.72857 
*END

*D_NET *414 0.00135138
*CONN
*I *1730:A I *D sky130_fd_sc_hd__or2_2
*I *1733:A I *D sky130_fd_sc_hd__or2_2
*I *1726:X O *D sky130_fd_sc_hd__and2_2
*CAP
1 *1730:A 9.43827e-05
2 *1733:A 0
3 *1726:X 0.000198
4 *414:12 0.000292383
5 *1730:A *1730:B 0.000122353
6 *414:12 *1730:B 0.000335202
7 *1726:B *414:12 5.49544e-05
8 *2058:D *1730:A 5.88989e-05
9 *2058:D *414:12 0.000125005
10 *2058:RESET_B *1730:A 3.08664e-05
11 *291:22 *1730:A 3.08664e-05
12 *291:22 *414:12 8.46259e-06
*RES
1 *1726:X *414:12 23.2107 
2 *414:12 *1733:A 9.3 
3 *414:12 *1730:A 12.3 
*END

*D_NET *415 0.00290034
*CONN
*I *1729:A1 I *D sky130_fd_sc_hd__o21a_2
*I *1732:A1 I *D sky130_fd_sc_hd__o21a_2
*I *1790:B I *D sky130_fd_sc_hd__or3b_2
*I *1727:X O *D sky130_fd_sc_hd__o21a_2
*CAP
1 *1729:A1 0
2 *1732:A1 0.000532547
3 *1790:B 0
4 *1727:X 9.84309e-05
5 *415:23 0.000893837
6 *415:12 0.000459721
7 *1732:A1 *1729:A2 2.84109e-05
8 *1732:A1 *1729:B1 5.33005e-05
9 *1732:A1 *1730:B 1.8729e-05
10 *1732:A1 *1732:B1 0
11 *1732:A1 *478:20 0.000145341
12 *1732:A1 *724:16 3.29297e-05
13 *415:12 *544:42 5.49995e-05
14 *415:23 *1730:B 0.000183855
15 *1728:B1 *1732:A1 0.000214562
16 *1731:B1 *1732:A1 9.44031e-05
17 *1790:A *415:23 7.25873e-06
18 *2087:D *415:12 7.74135e-05
19 *329:12 *1732:A1 4.60232e-06
*RES
1 *1727:X *415:12 19.8714 
2 *415:12 *1790:B 9.3 
3 *415:12 *415:23 6.625 
4 *415:23 *1732:A1 28.3179 
5 *415:23 *1729:A1 9.3 
*END

*D_NET *416 0.000632554
*CONN
*I *1729:A2 I *D sky130_fd_sc_hd__o21a_2
*I *1728:Y O *D sky130_fd_sc_hd__a21oi_2
*CAP
1 *1729:A2 0.000126496
2 *1728:Y 0.000126496
3 *1729:A2 *1730:B 5.47047e-05
4 *1729:A2 *2057:CLK 5.49544e-05
5 *1729:A2 *731:41 9.58181e-05
6 *1728:B1 *1729:A2 0.000145674
7 *1732:A1 *1729:A2 2.84109e-05
*RES
1 *1728:Y *1729:A2 30.725 
*END

*D_NET *417 0.00273024
*CONN
*I *1730:B I *D sky130_fd_sc_hd__or2_2
*I *1729:X O *D sky130_fd_sc_hd__o21a_2
*CAP
1 *1730:B 0.000923032
2 *1729:X 0.000923032
3 *1730:B *1729:B1 4.11486e-05
4 *1730:B *1846:A2 3.14963e-05
5 *1730:B *724:12 7.25873e-06
6 *1730:B *731:41 7.92378e-05
7 *1726:A *1730:B 1.01912e-05
8 *1729:A2 *1730:B 5.47047e-05
9 *1730:A *1730:B 0.000122353
10 *1732:A1 *1730:B 1.8729e-05
11 *414:12 *1730:B 0.000335202
12 *415:23 *1730:B 0.000183855
*RES
1 *1729:X *1730:B 41.85 
*END

*D_NET *418 0.00153309
*CONN
*I *1732:A2 I *D sky130_fd_sc_hd__o21a_2
*I *1731:Y O *D sky130_fd_sc_hd__a21oi_2
*CAP
1 *1732:A2 0.000237365
2 *1731:Y 0.000237365
3 *1732:A2 *1731:A1 4.12921e-06
4 *1732:A2 *1732:B1 0.000385169
5 *1732:A2 *1733:B 5.52302e-05
6 *1732:A2 *1846:B1 5.71472e-05
7 *1732:A2 *478:20 0.00015161
8 *1732:A2 *723:8 5.33005e-05
9 *1732:A2 *724:12 0.000172443
10 *1731:A2 *1732:A2 3.58774e-05
11 *291:22 *1732:A2 0.000143452
*RES
1 *1731:Y *1732:A2 44.1357 
*END

*D_NET *419 0.00124803
*CONN
*I *1733:B I *D sky130_fd_sc_hd__or2_2
*I *1732:X O *D sky130_fd_sc_hd__o21a_2
*CAP
1 *1733:B 0.000481706
2 *1732:X 0.000481706
3 *1733:B *1846:A1 4.7812e-05
4 *1733:B *1846:B1 8.57535e-05
5 *1733:B *478:20 9.58181e-05
6 *1732:A2 *1733:B 5.52302e-05
*RES
1 *1732:X *1733:B 25.1 
*END

*D_NET *420 0.000424707
*CONN
*I *1735:A2 I *D sky130_fd_sc_hd__o21a_2
*I *1734:Y O *D sky130_fd_sc_hd__nand2_2
*CAP
1 *1735:A2 9.10544e-05
2 *1734:Y 9.10544e-05
3 *1735:A2 *1612:A 1.32293e-05
4 *1735:A2 *1734:A 0.000150043
5 *1735:A2 *1736:A2 6.9237e-05
6 *1735:A2 *552:62 1.00887e-05
*RES
1 *1734:Y *1735:A2 30.0821 
*END

*D_NET *421 0.00459986
*CONN
*I *1792:B I *D sky130_fd_sc_hd__and2_2
*I *1738:B I *D sky130_fd_sc_hd__nor2_2
*I *1795:B1_N I *D sky130_fd_sc_hd__a21bo_2
*I *1737:Y O *D sky130_fd_sc_hd__nand2_2
*CAP
1 *1792:B 0.000502458
2 *1738:B 2.13113e-05
3 *1795:B1_N 0.000305868
4 *1737:Y 0.000171588
5 *421:25 0.000805392
6 *421:10 0.000759079
7 *1792:B *1742:A_N 0.000196276
8 *1792:B *2162:A 0
9 *1792:B *694:8 9.90431e-05
10 *1792:B *701:16 0.000165092
11 *1792:B *706:34 0.000440363
12 *1795:B1_N *2162:A 0.000144105
13 *1795:B1_N *692:31 5.10675e-05
14 *421:10 *537:28 9.90367e-05
15 *421:10 *692:42 0
16 *421:25 *701:16 0.000375788
17 *421:25 *722:10 1.84865e-05
18 mem_addr[10] *1792:B 9.90431e-05
19 mem_addr[6] *1792:B 0
20 *1740:B2 *1795:B1_N 0.000104887
21 *1740:B2 *421:10 6.32522e-05
22 *2092:D *1792:B 0.000163999
23 *2092:RESET_B *1792:B 0
24 *348:20 *1792:B 1.37292e-05
25 *407:12 *421:10 0
*RES
1 *1737:Y *421:10 17.3 
2 *421:10 *1795:B1_N 20.4473 
3 *421:10 *421:25 11.1964 
4 *421:25 *1738:B 9.72857 
5 *421:25 *1792:B 31.7821 
*END

*D_NET *422 0.00131749
*CONN
*I *1740:A2 I *D sky130_fd_sc_hd__o22a_2
*I *1738:Y O *D sky130_fd_sc_hd__nor2_2
*CAP
1 *1740:A2 0.000419453
2 *1738:Y 0.000419453
3 *1740:A2 *1740:A1 2.38501e-05
4 *1740:A2 *2216:A 7.36469e-05
5 *1740:A2 *692:14 2.19818e-05
6 *1740:A2 *706:12 0.000112133
7 *1740:A2 *722:10 4.49141e-05
8 *1740:A2 *722:12 1.75535e-05
9 *2054:RESET_B *1740:A2 0.000184503
*RES
1 *1738:Y *1740:A2 34.6893 
*END

*D_NET *423 0.00401517
*CONN
*I *1797:C1 I *D sky130_fd_sc_hd__a211o_2
*I *1740:B1 I *D sky130_fd_sc_hd__o22a_2
*I *1739:Y O *D sky130_fd_sc_hd__nor2_2
*CAP
1 *1797:C1 0.000577676
2 *1740:B1 0.000322446
3 *1739:Y 0.000900122
4 *1740:B1 *1938:A 6.48098e-05
5 *1797:C1 *1755:B1 6.79642e-05
6 *1797:C1 *1765:B 0
7 *1797:C1 *1796:C 3.17163e-05
8 *1797:C1 *1938:A 0.000180207
9 *1797:C1 *430:12 0
10 *1797:C1 *552:12 0.000293422
11 *1797:C1 *690:8 7.25873e-06
12 *1797:C1 *690:18 0.000158185
13 *1739:B *1740:B1 5.66971e-05
14 *1739:B *1797:C1 0.000286335
15 *2054:D *1740:B1 5.35386e-05
16 *2054:RESET_B *1740:B1 0.000227971
17 *2094:SET_B *1797:C1 0.000227021
18 *13:12 *1797:C1 0.00022706
19 *327:10 *1797:C1 0.000332735
*RES
1 *1739:Y *1740:B1 25.725 
2 *1739:Y *1797:C1 45.8857 
*END

*D_NET *424 0.00100735
*CONN
*I *1743:A2 I *D sky130_fd_sc_hd__a31o_2
*I *1741:X O *D sky130_fd_sc_hd__a22o_2
*CAP
1 *1743:A2 0.000305058
2 *1741:X 0.000305058
3 *1743:A2 *1741:A1 0.000222386
4 *1743:A2 *1741:A2 9.47712e-05
5 *1743:A2 *1743:A3 8.00806e-05
*RES
1 *1741:X *1743:A2 32.3812 
*END

*D_NET *425 0.0019034
*CONN
*I *1743:A3 I *D sky130_fd_sc_hd__a31o_2
*I *1742:Y O *D sky130_fd_sc_hd__nand3b_2
*CAP
1 *1743:A3 0.000713811
2 *1742:Y 0.000713811
3 *1743:A3 *1741:A1 0
4 *1743:A3 *1741:A2 0.000125717
5 *1743:A3 *1742:B 0
6 *1743:A3 *1742:C 2.51343e-06
7 *1743:A3 *1791:B1 7.83587e-05
8 *1743:A3 *552:62 3.80497e-05
9 *1743:A3 *721:14 0.000151061
10 *1743:A2 *1743:A3 8.00806e-05
*RES
1 *1742:Y *1743:A3 38.7429 
*END

*D_NET *426 0.0082242
*CONN
*I *1766:A1 I *D sky130_fd_sc_hd__a21boi_2
*I *1770:A1_N I *D sky130_fd_sc_hd__o2bb2a_2
*I *1756:A I *D sky130_fd_sc_hd__nor2_2
*I *1749:B1 I *D sky130_fd_sc_hd__a21oi_2
*I *1793:B I *D sky130_fd_sc_hd__nand2_2
*I *1797:A2 I *D sky130_fd_sc_hd__a211o_2
*I *1743:X O *D sky130_fd_sc_hd__a31o_2
*CAP
1 *1766:A1 0.000230971
2 *1770:A1_N 0.000141595
3 *1756:A 0.00023888
4 *1749:B1 9.6268e-05
5 *1793:B 0.000434364
6 *1797:A2 6.22914e-05
7 *1743:X 0.000233052
8 *426:67 0.000555979
9 *426:54 0.000422292
10 *426:43 0.000584516
11 *426:22 0.00109337
12 *1749:B1 *428:10 5.16779e-05
13 *1756:A *690:54 0.0004445
14 *1756:A *714:36 0
15 *1766:A1 *1755:B1 5.49544e-05
16 *1766:A1 *1766:A2 5.33005e-05
17 *1766:A1 *1766:B1_N 2.2351e-05
18 *1766:A1 *1770:A2_N 6.94952e-05
19 *1766:A1 *690:54 0.000190322
20 *1770:A1_N *1755:A1 2.14658e-05
21 *1770:A1_N *1761:A 0.000140859
22 *1770:A1_N *1770:A2_N 0.000140488
23 *1770:A1_N *1770:B1 0.000226867
24 *1770:A1_N *1770:B2 3.81196e-05
25 *1770:A1_N *437:6 0.000202186
26 *1793:B *1791:B1 5.22828e-05
27 *1793:B *1793:A 3.99614e-06
28 *1793:B *1794:A2 0
29 *1793:B *2093:D 5.71472e-05
30 *1793:B *552:62 0.000229021
31 *1793:B *692:59 4.79842e-05
32 *1793:B *692:78 2.19684e-05
33 *1797:A2 *1796:A 0.000271345
34 *1797:A2 *556:20 0.000185643
35 *426:22 *1796:A 9.41642e-05
36 *426:22 *552:62 0.000295844
37 *426:22 *692:78 5.88692e-05
38 *426:43 *1749:A2 0.000269795
39 *426:43 *1765:A 4.4873e-05
40 *426:43 *428:10 8.43535e-06
41 *426:43 *721:14 5.52238e-05
42 *426:67 *1755:A2 0.000103267
43 *426:67 *1755:A3 1.30594e-05
44 *426:67 *427:32 3.17148e-05
45 *426:67 *690:54 0.000356728
46 *2094:D *426:22 6.74815e-05
47 *2094:SET_B *426:43 0.000183726
48 *2215:A *1793:B 2.14658e-05
*RES
1 *1743:X *1797:A2 21.1893 
2 *1743:X *426:22 18.5143 
3 *426:22 *1793:B 22.0857 
4 *426:22 *426:43 12.8393 
5 *426:43 *1749:B1 11.0857 
6 *426:43 *426:54 4.5 
7 *426:54 *1756:A 19.3893 
8 *426:54 *426:67 9.17857 
9 *426:67 *1770:A1_N 14.8089 
10 *426:67 *1766:A1 23.1571 
*END

*D_NET *427 0.003354
*CONN
*I *1755:A1 I *D sky130_fd_sc_hd__a31o_2
*I *1770:B1 I *D sky130_fd_sc_hd__o2bb2a_2
*I *1744:X O *D sky130_fd_sc_hd__or2_2
*CAP
1 *1755:A1 7.19462e-05
2 *1770:B1 6.89373e-05
3 *1744:X 0.000896008
4 *427:32 0.00103689
5 *1770:B1 *437:6 9.83442e-05
6 *427:32 *1770:A2_N 0
7 *427:32 *2150:A 0.000183847
8 *427:32 *446:12 1.34236e-05
9 *427:32 *550:10 2.9043e-05
10 *427:32 *690:54 5.09844e-05
11 *427:32 *694:118 0.000506898
12 *427:32 *713:10 0
13 *1770:A1_N *1755:A1 2.14658e-05
14 *1770:A1_N *1770:B1 0.000226867
15 *2050:D *427:32 0.000117627
16 *426:67 *427:32 3.17148e-05
*RES
1 *1744:X *427:32 43.0321 
2 *427:32 *1770:B1 11.4786 
3 *427:32 *1755:A1 10.6929 
*END

*D_NET *428 0.000955613
*CONN
*I *1765:A I *D sky130_fd_sc_hd__nand2_2
*I *1749:A1 I *D sky130_fd_sc_hd__a21oi_2
*I *1745:X O *D sky130_fd_sc_hd__or3b_2
*CAP
1 *1765:A 3.9759e-05
2 *1749:A1 0
3 *1745:X 0.00028416
4 *428:10 0.000323919
5 *1765:A *1749:A2 9.99853e-05
6 *1765:A *1755:B1 9.03663e-05
7 *428:10 *1755:B1 1.24368e-05
8 *1749:B1 *428:10 5.16779e-05
9 *426:43 *1765:A 4.4873e-05
10 *426:43 *428:10 8.43535e-06
*RES
1 *1745:X *428:10 13.9786 
2 *428:10 *1749:A1 9.3 
3 *428:10 *1765:A 11.0679 
*END

*D_NET *429 0.00049764
*CONN
*I *1755:A2 I *D sky130_fd_sc_hd__a31o_2
*I *1746:Y O *D sky130_fd_sc_hd__nand2b_2
*CAP
1 *1755:A2 9.3259e-05
2 *1746:Y 9.3259e-05
3 *1755:A2 *1746:B 3.08664e-05
4 *1755:A2 *1755:A3 0.000176989
5 *426:67 *1755:A2 0.000103267
*RES
1 *1746:Y *1755:A2 30.2964 
*END

*D_NET *430 0.00302082
*CONN
*I *1748:B I *D sky130_fd_sc_hd__or3b_2
*I *1765:B I *D sky130_fd_sc_hd__nand2_2
*I *1756:B I *D sky130_fd_sc_hd__nor2_2
*I *1767:A2 I *D sky130_fd_sc_hd__o21a_2
*I *1747:Y O *D sky130_fd_sc_hd__nand3b_2
*CAP
1 *1748:B 0
2 *1765:B 0.000173546
3 *1756:B 0.000166974
4 *1767:A2 0.000271798
5 *1747:Y 0.000252657
6 *430:12 0.000567906
7 *430:10 0.00030268
8 *430:8 0.000252657
9 *1756:B *690:18 0.000268512
10 *1756:B *690:20 0.000142575
11 *1765:B *1749:A2 3.48139e-05
12 *1765:B *1755:B1 5.83304e-05
13 *1765:B *552:12 7.80714e-06
14 *1767:A2 *1767:B1 9.84673e-05
15 *1767:A2 *690:18 0.000339864
16 *1767:A2 *701:24 4.11572e-05
17 *430:8 *1748:A 2.51343e-06
18 *1797:C1 *1765:B 0
19 *1797:C1 *430:12 0
20 *2049:D *1767:A2 3.85645e-05
*RES
1 *1747:Y *430:8 12.3179 
2 *430:8 *430:10 4.5 
3 *430:10 *430:12 2.25 
4 *430:12 *1767:A2 20.2464 
5 *430:12 *1756:B 18.05 
6 *430:10 *1765:B 16.9607 
7 *430:8 *1748:B 9.3 
*END

*D_NET *431 0.000914037
*CONN
*I *1749:A2 I *D sky130_fd_sc_hd__a21oi_2
*I *1748:X O *D sky130_fd_sc_hd__or3b_2
*CAP
1 *1749:A2 0.000117276
2 *1748:X 0.000117276
3 *1749:A2 *1755:B1 0.000121844
4 *1749:A2 *552:12 0.000153047
5 *1765:A *1749:A2 9.99853e-05
6 *1765:B *1749:A2 3.48139e-05
7 *426:43 *1749:A2 0.000269795
*RES
1 *1748:X *1749:A2 32.1357 
*END

*D_NET *432 0.00199856
*CONN
*I *1755:B1 I *D sky130_fd_sc_hd__a31o_2
*I *1749:Y O *D sky130_fd_sc_hd__a21oi_2
*CAP
1 *1755:B1 0.000506871
2 *1749:Y 0.000506871
3 *1755:B1 *1770:A2_N 4.29615e-05
4 *1755:B1 *1796:C 6.26673e-05
5 *1755:B1 *1797:B1 9.58126e-05
6 *1755:B1 *444:8 0.000320024
7 *1755:B1 *552:12 5.74562e-05
8 *1749:A2 *1755:B1 0.000121844
9 *1765:A *1755:B1 9.03663e-05
10 *1765:B *1755:B1 5.83304e-05
11 *1766:A1 *1755:B1 5.49544e-05
12 *1797:C1 *1755:B1 6.79642e-05
13 *428:10 *1755:B1 1.24368e-05
*RES
1 *1749:Y *1755:B1 38.7786 
*END

*D_NET *433 0.00360792
*CONN
*I *1752:A1 I *D sky130_fd_sc_hd__o21a_2
*I *1754:C1 I *D sky130_fd_sc_hd__a221o_2
*I *1768:A1 I *D sky130_fd_sc_hd__o21a_2
*I *1750:X O *D sky130_fd_sc_hd__or3b_2
*CAP
1 *1752:A1 0
2 *1754:C1 0
3 *1768:A1 0.000336505
4 *1750:X 0.000212002
5 *433:20 0.000659531
6 *433:12 0.000535028
7 *1768:A1 *1723:A1 7.32955e-05
8 *1768:A1 *1751:B 0
9 *1768:A1 *1754:B2 0.000171378
10 *1768:A1 *1768:A2 0.000301594
11 *1768:A1 *1768:B1 0.000188586
12 *1768:A1 *2047:CLK 8.34697e-05
13 *1768:A1 *435:12 3.67279e-06
14 *433:12 *1750:B 0
15 *433:12 *1750:C_N 3.25078e-05
16 *433:12 *1752:A2 1.00887e-05
17 *433:12 *1757:A1 9.25014e-06
18 *433:12 *1942:A 9.60875e-05
19 *433:12 *436:12 0.000266843
20 *433:20 *1752:B1 0.000141935
21 *433:20 *2047:CLK 0.000270882
22 *433:20 *435:12 4.51113e-05
23 *433:20 *701:24 4.4545e-05
24 *2047:D *1768:A1 2.44318e-05
25 *2048:D *433:20 0.000101178
*RES
1 *1750:X *433:12 22.7107 
2 *433:12 *433:20 12.1964 
3 *433:20 *1768:A1 23.2286 
4 *433:20 *1754:C1 13.8 
5 *433:12 *1752:A1 9.3 
*END

*D_NET *434 0.00165677
*CONN
*I *1752:A2 I *D sky130_fd_sc_hd__o21a_2
*I *1754:A2 I *D sky130_fd_sc_hd__a221o_2
*I *1751:Y O *D sky130_fd_sc_hd__nand2b_2
*CAP
1 *1752:A2 0.000246444
2 *1754:A2 0
3 *1751:Y 0.00021671
4 *434:12 0.000463154
5 *1752:A2 *1724:A1 2.17339e-05
6 *1752:A2 *1768:A2 4.27842e-06
7 *1752:A2 *435:12 7.0586e-05
8 *1752:A2 *436:12 0.000156381
9 *1752:A2 *689:17 3.32656e-05
10 *434:12 *1724:A1 0.000163675
11 *434:12 *1751:A_N 0.000107174
12 *434:12 *689:17 0.000163279
13 *2047:D *434:12 0
14 *433:12 *1752:A2 1.00887e-05
*RES
1 *1751:Y *434:12 23.9339 
2 *434:12 *1754:A2 9.3 
3 *434:12 *1752:A2 23.6125 
*END

*D_NET *435 0.00226072
*CONN
*I *1754:B1 I *D sky130_fd_sc_hd__a221o_2
*I *1768:A2 I *D sky130_fd_sc_hd__o21a_2
*I *1753:Y O *D sky130_fd_sc_hd__nand2b_2
*CAP
1 *1754:B1 0
2 *1768:A2 0.000228209
3 *1753:Y 0.000437615
4 *435:12 0.000665825
5 *1768:A2 *1751:A_N 0
6 *435:12 *550:36 0.000161963
7 *435:12 *550:49 1.62025e-05
8 *435:12 *731:124 0.000143633
9 *1752:A2 *1768:A2 4.27842e-06
10 *1752:A2 *435:12 7.0586e-05
11 *1768:A1 *1768:A2 0.000301594
12 *1768:A1 *435:12 3.67279e-06
13 *2047:D *1768:A2 0.000182027
14 *433:20 *435:12 4.51113e-05
*RES
1 *1753:Y *435:12 22.4607 
2 *435:12 *1768:A2 19.5321 
3 *435:12 *1754:B1 13.8 
*END

*D_NET *436 0.00635451
*CONN
*I *1762:A I *D sky130_fd_sc_hd__nand2_2
*I *1769:A1 I *D sky130_fd_sc_hd__a21o_2
*I *1755:A3 I *D sky130_fd_sc_hd__a31o_2
*I *1754:X O *D sky130_fd_sc_hd__a221o_2
*CAP
1 *1762:A 4.08658e-05
2 *1769:A1 0.000125243
3 *1755:A3 0.000445419
4 *1754:X 0.000598126
5 *436:33 0.000715057
6 *436:12 0.00159249
7 *1755:A3 *1746:A_N 2.84109e-05
8 *1755:A3 *1746:B 5.47415e-05
9 *1755:A3 *2248:A 7.3237e-05
10 *1755:A3 *712:42 5.03772e-05
11 *1762:A *550:10 1.60642e-05
12 *1769:A1 *550:10 5.22743e-05
13 *436:12 *1757:A0 0.000318309
14 *436:12 *1757:A1 0.000407535
15 *436:12 *2231:A 0.000124019
16 *436:12 *437:23 0.000249486
17 *436:12 *712:25 6.95631e-05
18 *436:12 *712:36 7.57869e-05
19 *436:12 *713:12 0
20 *436:12 *731:124 0
21 *436:33 *1744:A 5.33005e-05
22 *436:33 *1744:B 9.96238e-05
23 *436:33 *1762:B 5.33334e-05
24 *436:33 *437:23 9.30093e-05
25 *436:33 *446:12 0.000272658
26 *436:33 *550:10 9.94157e-05
27 *436:33 *712:42 3.28897e-05
28 *436:33 *713:10 0
29 *436:33 *713:12 0
30 *1752:A2 *436:12 0.000156381
31 *1755:A2 *1755:A3 0.000176989
32 *2053:D *436:12 0
33 *2053:RESET_B *436:12 0
34 *426:67 *1755:A3 1.30594e-05
35 *433:12 *436:12 0.000266843
*RES
1 *1754:X *436:12 31.5857 
2 *436:12 *1755:A3 29.1929 
3 *436:12 *436:33 14.8036 
4 *436:33 *1769:A1 10.8893 
5 *436:33 *1762:A 10.1839 
*END

*D_NET *437 0.00299964
*CONN
*I *1757:S I *D sky130_fd_sc_hd__mux2_1
*I *1764:B I *D sky130_fd_sc_hd__and2_2
*I *1763:A2 I *D sky130_fd_sc_hd__a22o_2
*I *1755:X O *D sky130_fd_sc_hd__a31o_2
*CAP
1 *1757:S 0
2 *1764:B 0.000240322
3 *1763:A2 0.000219211
4 *1755:X 0.000173772
5 *437:23 0.000390477
6 *437:6 0.000543138
7 *1763:A2 *1761:A 5.03772e-05
8 *1763:A2 *1763:A1 0.000134603
9 *1763:A2 *441:17 0
10 *1763:A2 *442:10 5.52302e-05
11 *1763:A2 *713:60 1.02821e-05
12 *1763:A2 *713:64 4.70078e-05
13 *1764:B *1757:A0 9.90367e-05
14 *437:6 *1761:A 8.96921e-05
15 *437:6 *1770:A2_N 0.000224168
16 *437:23 *1764:A 0
17 *437:23 *712:42 7.92975e-05
18 *437:23 *731:124 0
19 *1770:A1_N *437:6 0.000202186
20 *1770:B1 *437:6 9.83442e-05
21 *436:12 *437:23 0.000249486
22 *436:33 *437:23 9.30093e-05
*RES
1 *1755:X *437:6 13.9429 
2 *437:6 *1763:A2 13.8536 
3 *437:6 *437:23 13.375 
4 *437:23 *1764:B 13.55 
5 *437:23 *1757:S 9.3 
*END

*D_NET *438 0.00160072
*CONN
*I *1757:A0 I *D sky130_fd_sc_hd__mux2_1
*I *1756:Y O *D sky130_fd_sc_hd__nor2_2
*CAP
1 *1757:A0 0.000527628
2 *1756:Y 0.000527628
3 *1757:A0 *1757:A1 5.52238e-05
4 *1757:A0 *690:20 3.56005e-05
5 *1757:A0 *714:8 3.72932e-05
6 *1757:A0 *731:124 0
7 *1764:B *1757:A0 9.90367e-05
8 *2053:D *1757:A0 0
9 *436:12 *1757:A0 0.000318309
*RES
1 *1756:Y *1757:A0 37.6714 
*END

*D_NET *439 0.000633185
*CONN
*I *1760:A2 I *D sky130_fd_sc_hd__a31oi_2
*I *1758:X O *D sky130_fd_sc_hd__a22o_2
*CAP
1 *1760:A2 0.000211492
2 *1758:X 0.000211492
3 *1760:A2 *1758:A1 1.15281e-05
4 *1760:A2 *1758:A2 3.69047e-06
5 *1760:A2 *1760:A3 6.98762e-05
6 *1760:A2 *544:34 6.74911e-05
7 *1760:A2 *555:80 5.7616e-05
8 *1760:A2 *555:84 0
*RES
1 *1758:X *1760:A2 32.2071 
*END

*D_NET *440 0.00125352
*CONN
*I *1760:A3 I *D sky130_fd_sc_hd__a31oi_2
*I *1759:Y O *D sky130_fd_sc_hd__nand3b_2
*CAP
1 *1760:A3 0.000261366
2 *1759:Y 0.000261366
3 *1760:A3 *1758:B1 2.89114e-05
4 *1760:A3 *1758:B2 0.000126026
5 *1760:A3 *544:34 0.00015134
6 *1760:A3 *735:10 0.00034251
7 *1760:A3 *735:14 1.21289e-05
8 *1760:A2 *1760:A3 6.98762e-05
*RES
1 *1759:Y *1760:A3 34.975 
*END

*D_NET *441 0.00194198
*CONN
*I *1763:B1 I *D sky130_fd_sc_hd__a22o_2
*I *1769:B1 I *D sky130_fd_sc_hd__a21o_2
*I *1782:A_N I *D sky130_fd_sc_hd__nand2b_2
*I *1760:Y O *D sky130_fd_sc_hd__a31oi_2
*CAP
1 *1763:B1 7.77774e-05
2 *1769:B1 0.000233073
3 *1782:A_N 0
4 *1760:Y 0.000185908
5 *441:17 0.000588481
6 *441:8 0.000463537
7 *1763:B1 *1763:B2 7.08238e-05
8 *1769:B1 *550:10 9.11233e-05
9 *1769:B1 *550:12 0.000134748
10 *1769:B1 *681:32 0
11 *1769:B1 *736:10 0
12 *441:8 *1782:B 1.21258e-05
13 *441:8 *1980:A 2.14658e-05
14 *441:17 *1763:B2 5.7661e-06
15 *1760:B1 *441:8 5.71472e-05
16 *1763:A2 *441:17 0
*RES
1 *1760:Y *441:8 12.7286 
2 *441:8 *1782:A_N 9.3 
3 *441:8 *441:17 4.66071 
4 *441:17 *1769:B1 23.5857 
5 *441:17 *1763:B1 10.6571 
*END

*D_NET *442 0.00186191
*CONN
*I *1769:A2 I *D sky130_fd_sc_hd__a21o_2
*I *1762:B I *D sky130_fd_sc_hd__nand2_2
*I *1761:X O *D sky130_fd_sc_hd__or3b_2
*CAP
1 *1769:A2 0.000278445
2 *1762:B 2.01188e-05
3 *1761:X 0.00022023
4 *442:10 0.000518794
5 *1762:B *550:10 9.84673e-05
6 *1769:A2 *1763:B2 9.54798e-06
7 *1769:A2 *446:12 9.79018e-06
8 *1769:A2 *535:33 0.000135962
9 *1769:A2 *550:10 2.23393e-05
10 *442:10 *1744:A 0.000104002
11 *442:10 *712:42 3.38136e-05
12 *442:10 *731:124 0.000154066
13 *1763:A2 *442:10 5.52302e-05
14 *2052:RESET_B *442:10 0.000147769
15 *436:33 *1762:B 5.33334e-05
*RES
1 *1761:X *442:10 19.925 
2 *442:10 *1762:B 14.7464 
3 *442:10 *1769:A2 21.4483 
*END

*D_NET *443 0.000957729
*CONN
*I *1763:B2 I *D sky130_fd_sc_hd__a22o_2
*I *1762:Y O *D sky130_fd_sc_hd__nand2_2
*CAP
1 *1763:B2 0.00023597
2 *1762:Y 0.00023597
3 *1763:B2 *1763:A1 3.31038e-05
4 *1763:B2 *550:10 7.46411e-05
5 *1763:B2 *550:12 9.57064e-05
6 *1763:B2 *713:64 0
7 *1763:B2 *731:124 6.63314e-05
8 *1763:B1 *1763:B2 7.08238e-05
9 *1769:A2 *1763:B2 9.54798e-06
10 *2052:D *1763:B2 0.000129868
11 *441:17 *1763:B2 5.7661e-06
*RES
1 *1762:Y *1763:B2 33.8857 
*END

*D_NET *444 0.00344753
*CONN
*I *1766:A2 I *D sky130_fd_sc_hd__a21boi_2
*I *1770:A2_N I *D sky130_fd_sc_hd__o2bb2a_2
*I *1765:Y O *D sky130_fd_sc_hd__nand2_2
*CAP
1 *1766:A2 0.000162686
2 *1770:A2_N 0.000702134
3 *1765:Y 0.000217812
4 *444:8 0.00108263
5 *1766:A2 *1766:B1_N 0.000325886
6 *1770:A2_N *1797:B1 2.84026e-05
7 *1770:A2_N *713:10 0
8 *1770:A2_N *714:70 3.69697e-05
9 *444:8 *1766:B1_N 9.25014e-06
10 *444:8 *1796:C 3.13225e-05
11 *1755:B1 *1770:A2_N 4.29615e-05
12 *1755:B1 *444:8 0.000320024
13 *1766:A1 *1766:A2 5.33005e-05
14 *1766:A1 *1770:A2_N 6.94952e-05
15 *1770:A1_N *1770:A2_N 0.000140488
16 *427:32 *1770:A2_N 0
17 *437:6 *1770:A2_N 0.000224168
*RES
1 *1765:Y *444:8 18.7821 
2 *444:8 *1770:A2_N 32.0857 
3 *444:8 *1766:A2 17.6214 
*END

*D_NET *445 0.00540951
*CONN
*I *1771:A I *D sky130_fd_sc_hd__nand2_2
*I *1773:B I *D sky130_fd_sc_hd__and2_2
*I *1887:A1 I *D sky130_fd_sc_hd__a2111oi_2
*I *1769:X O *D sky130_fd_sc_hd__a21o_2
*CAP
1 *1771:A 0.000443204
2 *1773:B 0
3 *1887:A1 0.000497
4 *1769:X 0.00069697
5 *445:18 0.000750766
6 *1771:A *1771:B 5.50052e-05
7 *1771:A *1887:B1 2.30099e-05
8 *1771:A *2146:A 4.6845e-05
9 *1771:A *2242:A 3.02892e-05
10 *1771:A *535:76 6.33946e-05
11 *1771:A *545:49 3.37927e-05
12 *1887:A1 *1773:A 9.84729e-05
13 *1887:A1 *545:49 5.49995e-05
14 *445:18 *1625:B 0.000180202
15 *445:18 *1773:A 7.21819e-05
16 *445:18 *1781:B 0.000269747
17 *445:18 *1788:A2 0.000309106
18 *445:18 *1788:B1 0.000123168
19 *445:18 *1788:B2 0.000399547
20 *445:18 *545:8 0.000355287
21 *445:18 *545:45 1.09606e-05
22 *445:18 *736:12 0.000523662
23 *1760:A1 *445:18 9.67754e-05
24 *1885:A1 *1771:A 9.90367e-05
25 *2086:RESET_B *445:18 7.69628e-05
26 *2091:D *445:18 9.9129e-05
*RES
1 *1769:X *445:18 38.6036 
2 *445:18 *1887:A1 10.6571 
3 *445:18 *1773:B 9.3 
4 *1887:A1 *1771:A 35.4929 
*END

*D_NET *446 0.00777944
*CONN
*I *1887:A2 I *D sky130_fd_sc_hd__a2111oi_2
*I *1771:B I *D sky130_fd_sc_hd__nand2_2
*I *1770:X O *D sky130_fd_sc_hd__o2bb2a_2
*CAP
1 *1887:A2 3.17218e-05
2 *1771:B 0.000431649
3 *1770:X 0.00261236
4 *446:12 0.00307573
5 *1771:B *2146:A 0.000168185
6 *1771:B *535:76 2.59355e-05
7 *1887:A2 *506:10 0
8 *1887:A2 *545:45 1.46017e-05
9 *446:12 *1744:B 0
10 *446:12 *535:33 0.000746025
11 *446:12 *681:36 2.57857e-05
12 *446:12 *681:50 2.48858e-05
13 *446:12 *694:118 6.08909e-05
14 *446:12 *713:10 2.79092e-05
15 *1769:A2 *446:12 9.79018e-06
16 *1771:A *1771:B 5.50052e-05
17 *1781:A_N *1771:B 0
18 *1781:A_N *446:12 0
19 *1887:C1 *1771:B 0.000182875
20 *2052:RESET_B *446:12 0
21 *427:32 *446:12 1.34236e-05
22 *436:33 *446:12 0.000272658
*RES
1 *1770:X *446:12 28.3616 
2 *446:12 *1771:B 20.771 
3 *446:12 *1887:A2 17.7904 
*END

*D_NET *447 0.0179539
*CONN
*I *1884:B I *D sky130_fd_sc_hd__and3_2
*I *1772:A I *D sky130_fd_sc_hd__inv_2
*I *1866:A I *D sky130_fd_sc_hd__and3_2
*I *1853:A I *D sky130_fd_sc_hd__and2_2
*I *1847:A3 I *D sky130_fd_sc_hd__a31o_2
*I *1844:A2 I *D sky130_fd_sc_hd__a21oi_2
*I *1846:A2 I *D sky130_fd_sc_hd__a21oi_2
*I *1845:A2 I *D sky130_fd_sc_hd__o21a_2
*I *1849:A3 I *D sky130_fd_sc_hd__a31oi_2
*I *1850:D I *D sky130_fd_sc_hd__and4_2
*I *1771:Y O *D sky130_fd_sc_hd__nand2_2
*CAP
1 *1884:B 0.000250335
2 *1772:A 4.37595e-05
3 *1866:A 8.5335e-05
4 *1853:A 0.000656835
5 *1847:A3 0.00013483
6 *1844:A2 0
7 *1846:A2 0.00131122
8 *1845:A2 0.000123359
9 *1849:A3 0.000324556
10 *1850:D 7.29342e-05
11 *1771:Y 0.000260836
12 *447:92 0.00013483
13 *447:42 0.00123364
14 *447:36 0.00129533
15 *447:34 0.00173599
16 *447:30 0.000815179
17 *447:26 0.00154194
18 *447:20 0.000292547
19 *447:18 0.000421045
20 *447:12 0.000840109
21 *1772:A *2063:CLK 9.41642e-05
22 *1772:A *675:16 2.59355e-05
23 *1845:A2 *1845:B1 1.56278e-05
24 *1845:A2 *1846:B1 5.71472e-05
25 *1845:A2 *659:36 0
26 *1845:A2 *659:44 3.49011e-05
27 *1847:A3 *1847:A1 0.000493655
28 *1847:A3 *659:82 0.000612569
29 *1849:A3 *1849:A2 0.000395796
30 *1849:A3 *2290:A 2.59355e-05
31 *1850:D *1850:C 5.49489e-05
32 *1850:D *481:14 4.23644e-06
33 *1853:A *1853:B 0.000125498
34 *1853:A *1858:A1 3.97677e-05
35 *1866:A *1860:C 0.000183713
36 *1866:A *1866:C 0.00010096
37 *1866:A *492:43 1.56e-05
38 *1884:B *1879:A 0.000218408
39 *1884:B *1879:B 0.000193761
40 *1884:B *2267:A 1.00887e-05
41 *1884:B *501:14 0.000137639
42 *1884:B *535:76 2.85321e-05
43 *1884:B *535:86 6.05161e-06
44 *1884:B *559:16 7.89362e-05
45 *447:12 *1609:A 9.41642e-05
46 *447:12 *504:6 8.70166e-05
47 *447:12 *504:19 8.34321e-05
48 *447:12 *535:76 2.97489e-05
49 *447:18 *1609:A 3.71841e-05
50 *447:18 *1857:A2 9.0573e-05
51 *447:18 *1860:C 0.000162125
52 *447:18 *1863:A2 0.000355243
53 *447:18 *1879:A 0.000122226
54 *447:18 *1879:B 0.000120504
55 *447:18 *1886:B 5.84171e-05
56 *447:18 *483:61 0.000267821
57 *447:18 *535:106 1.34836e-05
58 *447:20 *1860:C 0.00013966
59 *447:20 *483:61 0.000148911
60 *447:26 *1857:B1 0
61 *447:26 *1860:C 3.17148e-05
62 *447:26 *483:24 7.92056e-05
63 *447:26 *483:61 0.000119039
64 *447:26 *667:55 3.53761e-05
65 *447:30 *1845:B1 0
66 *447:30 *1856:A2 0.00014955
67 *447:30 *483:24 1.94945e-05
68 *447:30 *659:14 0
69 *447:30 *659:32 5.78912e-05
70 cpu_stall *447:34 0
71 *1710:B1_N *1853:A 4.15183e-05
72 *1710:B1_N *447:26 3.43988e-06
73 *1711:B1_N *1853:A 0.000307343
74 *1730:B *1846:A2 3.14963e-05
75 *1885:A1 *447:12 9.90367e-05
76 *2057:RESET_B *447:30 3.99088e-05
77 *2064:D *1853:A 1.02504e-05
78 *2064:D *447:30 0.000523367
79 *402:8 *1853:A 4.85243e-05
80 *404:22 *447:26 1.77809e-05
*RES
1 *1771:Y *447:12 18.175 
2 *447:12 *447:18 9.89286 
3 *447:18 *447:20 1.94643 
4 *447:20 *447:26 3.97321 
5 *447:26 *447:30 15.0804 
6 *447:30 *447:34 6.14286 
7 *447:34 *447:36 3.82143 
8 *447:36 *447:42 14.2857 
9 *447:42 *1850:D 14.7464 
10 *447:42 *1849:A3 19.925 
11 *447:36 *1845:A2 20.9071 
12 *447:34 *1846:A2 34.0321 
13 *447:30 *447:92 4.5 
14 *447:92 *1844:A2 9.3 
15 *447:92 *1847:A3 16.55 
16 *447:26 *1853:A 23.5411 
17 *447:20 *1866:A 15.9786 
18 *447:18 *1772:A 14.7464 
19 *447:12 *1884:B 28.2821 
*END

*D_NET *448 0.00140638
*CONN
*I *1776:B I *D sky130_fd_sc_hd__or2_2
*I *1775:Y O *D sky130_fd_sc_hd__a21oi_2
*CAP
1 *1776:B 0.000322657
2 *1775:Y 0.000322657
3 *1776:B *1627:A 1.41642e-05
4 *1776:B *1933:A 4.73286e-05
5 *1776:B *555:31 0.000250767
6 *1776:B *555:55 2.12065e-05
7 *1632:B1 *1776:B 5.33005e-05
8 *1775:B1 *1776:B 5.65955e-05
9 *1776:A *1776:B 0.000139202
10 *2014:RESET_B *1776:B 0.000147268
11 *345:12 *1776:B 3.12359e-05
*RES
1 *1775:Y *1776:B 35.9214 
*END

*D_NET *449 0.00747958
*CONN
*I *1788:A2 I *D sky130_fd_sc_hd__a221o_2
*I *1790:C_N I *D sky130_fd_sc_hd__or3b_2
*I *1831:B I *D sky130_fd_sc_hd__nor2_2
*I *1782:Y O *D sky130_fd_sc_hd__nand2b_2
*CAP
1 *1788:A2 0.00117996
2 *1790:C_N 0.000216678
3 *1831:B 0.000335498
4 *1782:Y 0
5 *449:12 0.00126301
6 *449:6 0.00189079
7 *1788:A2 *1626:C 1.88189e-05
8 *1788:A2 *1781:B 0.000140243
9 *1788:A2 *1788:A1 9.99853e-05
10 *1788:A2 *1788:B1 2.1795e-05
11 *1788:A2 *1788:B2 0.000146171
12 *1788:A2 *681:32 0
13 *1790:C_N *1720:B1_N 3.91098e-05
14 *1831:B *471:12 1.48616e-05
15 *449:12 *1980:A 0.000986221
16 *449:12 *471:12 2.05418e-05
17 *449:12 *555:80 0
18 *449:12 *681:8 0
19 *449:12 *681:19 0
20 *449:12 *681:32 0
21 *1725:A *1790:C_N 0.000173015
22 *1725:B *1790:C_N 1.6815e-05
23 *1726:B *1790:C_N 8.91963e-06
24 *1760:A1 *1788:A2 9.67754e-05
25 *1760:B1 *1788:A2 0
26 *1760:B1 *449:12 0
27 *1781:A_N *1788:A2 0.000137473
28 *1831:A *1831:B 6.57648e-05
29 *2061:D *1790:C_N 6.11594e-05
30 *2085:RESET_B *1788:A2 0
31 *2088:RESET_B *449:12 0.000197787
32 *413:8 *1790:C_N 3.46801e-05
33 *413:31 *1790:C_N 4.41329e-06
34 *445:18 *1788:A2 0.000309106
*RES
1 *1782:Y *449:6 13.8 
2 *449:6 *449:12 20.4643 
3 *449:12 *1831:B 13.8714 
4 *449:12 *1790:C_N 23.6214 
5 *449:6 *1788:A2 41.0366 
*END

*D_NET *450 0.00355885
*CONN
*I *1841:B I *D sky130_fd_sc_hd__and2_2
*I *1784:B I *D sky130_fd_sc_hd__nor2_2
*I *1783:X O *D sky130_fd_sc_hd__a22o_2
*CAP
1 *1841:B 0.000695941
2 *1784:B 0.00031723
3 *1783:X 0.000212575
4 *450:12 0.00122575
5 *1784:B *1721:B1 1.92789e-05
6 *1784:B *2222:A 0.00022266
7 *1841:B *1722:B1 5.52302e-05
8 *1841:B *1841:A 7.01785e-05
9 *1841:B *2223:A 5.49544e-05
10 *1841:B *708:16 7.32955e-05
11 *1841:B *726:34 0
12 *1841:B *734:12 9.22103e-06
13 *450:12 *535:15 8.14124e-05
14 *1783:A2 *1841:B 0
15 *1783:A2 *450:12 0.000445238
16 *2052:RESET_B *450:12 7.58841e-05
17 *2059:RESET_B *1841:B 0
*RES
1 *1783:X *450:12 23.6527 
2 *450:12 *1784:B 14.7821 
3 *450:12 *1841:B 30.5321 
*END

*D_NET *451 0.00286165
*CONN
*I *1788:C1 I *D sky130_fd_sc_hd__a221o_2
*I *1784:Y O *D sky130_fd_sc_hd__nor2_2
*CAP
1 *1788:C1 0.000985938
2 *1784:Y 0.000985938
3 *1788:C1 *1626:A 0.00044361
4 *1788:C1 *1626:B 5.63468e-05
5 *1788:C1 *1788:A1 0.000217604
6 *1788:C1 *1788:B1 3.41517e-06
7 *1788:C1 *2185:A 4.80729e-05
8 *2060:D *1788:C1 0.000120727
*RES
1 *1784:Y *1788:C1 45.475 
*END

*D_NET *452 0.000224752
*CONN
*I *1787:A I *D sky130_fd_sc_hd__nor2_2
*I *1785:X O *D sky130_fd_sc_hd__o21a_2
*CAP
1 *1787:A 2.18332e-05
2 *1785:X 2.18332e-05
3 *1787:A *1787:B 9.90367e-05
4 *1787:A *705:22 2.87485e-05
5 *1787:A *738:29 5.33005e-05
*RES
1 *1785:X *1787:A 19.5464 
*END

*D_NET *453 0.00114587
*CONN
*I *1787:B I *D sky130_fd_sc_hd__nor2_2
*I *1786:X O *D sky130_fd_sc_hd__o21a_2
*CAP
1 *1787:B 0.000268027
2 *1786:X 0.000268027
3 *1787:B *1707:A 0.000110713
4 *1787:B *705:12 1.7845e-05
5 *1787:B *705:16 5.33978e-05
6 *1787:B *705:22 4.59075e-05
7 *1787:B *705:57 0.000180777
8 *1787:B *738:29 7.25712e-05
9 *1787:A *1787:B 9.90367e-05
10 *402:8 *1787:B 2.95726e-05
*RES
1 *1786:X *1787:B 34.0286 
*END

*D_NET *454 0.00468291
*CONN
*I *1789:A2 I *D sky130_fd_sc_hd__o21bai_2
*I *1788:B1 I *D sky130_fd_sc_hd__a221o_2
*I *1787:Y O *D sky130_fd_sc_hd__nor2_2
*CAP
1 *1789:A2 0
2 *1788:B1 0.000867186
3 *1787:Y 0.000377645
4 *454:14 0.00124483
5 *1788:B1 *1773:A 9.58181e-05
6 *1788:B1 *1788:A1 3.08664e-05
7 *1788:B1 *2086:CLK 0.00013864
8 *1788:B1 *2141:A 0
9 *1788:B1 *535:43 0
10 *1788:B1 *545:10 8.69922e-05
11 *1788:B1 *545:45 7.63288e-05
12 *1788:B1 *733:16 0
13 *1788:B1 *733:20 0.000168217
14 *454:14 *1853:B 0
15 *454:14 *2294:A 0
16 *454:14 *677:27 6.52967e-05
17 *454:14 *705:10 5.90443e-06
18 *454:14 *705:12 7.75022e-05
19 *454:14 *705:16 2.18103e-05
20 *1713:B1 *454:14 0.000479652
21 *1788:A2 *1788:B1 2.1795e-05
22 *1788:C1 *1788:B1 3.41517e-06
23 *1789:B1_N *454:14 0
24 *2012:D *1788:B1 4.55532e-05
25 *2089:D *1788:B1 0.000105347
26 *2091:D *1788:B1 0.000236622
27 *329:10 *1788:B1 3.93893e-05
28 *329:12 *1788:B1 4.1331e-06
29 *404:16 *454:14 3.14193e-05
30 *413:41 *1788:B1 0
31 *413:41 *454:14 0.000335376
32 *445:18 *1788:B1 0.000123168
*RES
1 *1787:Y *454:14 28.05 
2 *454:14 *1788:B1 37.1929 
3 *454:14 *1789:A2 9.3 
*END

*D_NET *455 0.00199342
*CONN
*I *1794:A2 I *D sky130_fd_sc_hd__a211o_2
*I *1793:Y O *D sky130_fd_sc_hd__nand2_2
*CAP
1 *1794:A2 0.000506192
2 *1793:Y 0.000506192
3 *1794:A2 *1717:B 0.00010096
4 *1794:A2 *1741:B1 0.000150625
5 *1794:A2 *1793:A 9.40156e-05
6 *1794:A2 *556:88 0.00050705
7 *1793:B *1794:A2 0
8 *1794:B1 *1794:A2 0.00012839
*RES
1 *1793:Y *1794:A2 37.9393 
*END

*D_NET *456 0.000546577
*CONN
*I *1797:B1 I *D sky130_fd_sc_hd__a211o_2
*I *1796:X O *D sky130_fd_sc_hd__and3_2
*CAP
1 *1797:B1 0.00011904
2 *1796:X 0.00011904
3 *1797:B1 *1796:A 5.17614e-05
4 *1797:B1 *1796:C 1.21258e-05
5 *1797:B1 *1797:A1 1.97695e-05
6 *1797:B1 *556:31 0.000100625
7 *1755:B1 *1797:B1 9.58126e-05
8 *1770:A2_N *1797:B1 2.84026e-05
*RES
1 *1796:X *1797:B1 22.0464 
*END

*D_NET *457 0.00144721
*CONN
*I *2220:A I *D sky130_fd_sc_hd__dlygate4sd3_1
*I *1803:Y O *D sky130_fd_sc_hd__a21oi_2
*CAP
1 *2220:A 0.000532982
2 *1803:Y 0.000532982
3 *2220:A *1802:A 0
4 *2220:A *1802:B 0.000103958
5 *2220:A *1915:A1 0
6 *2220:A *2105:CLK 0
7 *2220:A *2106:CLK 5.38886e-05
8 *2220:A *522:16 0
9 *2220:A *535:313 9.16808e-05
10 *2220:A *548:58 9.84673e-05
11 *2105:D *2220:A 0
12 *2105:RESET_B *2220:A 3.32523e-05
*RES
1 *1803:Y *2220:A 38.0107 
*END

*D_NET *458 0.000231084
*CONN
*I *1809:B I *D sky130_fd_sc_hd__nor3_2
*I *1807:Y O *D sky130_fd_sc_hd__a21oi_2
*CAP
1 *1809:B 0.000115542
2 *1807:Y 0.000115542
*RES
1 *1807:Y *1809:B 29.2429 
*END

*D_NET *459 0.00427119
*CONN
*I *1814:A3 I *D sky130_fd_sc_hd__a31oi_2
*I *1815:D I *D sky130_fd_sc_hd__and4_2
*I *1810:B I *D sky130_fd_sc_hd__nand2_2
*I *1811:B I *D sky130_fd_sc_hd__or2_2
*I *1809:C I *D sky130_fd_sc_hd__nor3_2
*I *1808:X O *D sky130_fd_sc_hd__and3_2
*CAP
1 *1814:A3 0
2 *1815:D 0.000237527
3 *1810:B 0
4 *1811:B 0.000294226
5 *1809:C 0.000274197
6 *1808:X 0.000199895
7 *459:58 0.000611286
8 *459:43 0.000479465
9 *459:10 0.000662612
10 *1809:C *1809:A 0.000223677
11 *1809:C *1928:B 4.93118e-06
12 *1811:B *1809:A 3.14003e-05
13 *1811:B *1813:B 8.08608e-06
14 *1811:B *1928:B 0
15 *1811:B *2010:A 8.71335e-05
16 *1811:B *751:8 8.40601e-05
17 *1815:D *1658:B 0
18 *1815:D *540:54 7.03295e-05
19 *1815:D *752:84 4.1331e-06
20 *1815:D *754:48 0.000173653
21 *459:10 *1809:A 0.000100248
22 *459:10 *751:8 5.09908e-05
23 *459:43 *1808:B 3.99614e-06
24 *459:43 *1810:A 2.83629e-05
25 *459:43 *1812:A 1.91004e-05
26 *459:43 *1813:A 2.44318e-05
27 *459:58 *1812:A 5.63208e-05
28 *459:58 *1813:A 0.000276846
29 *459:58 *2111:CLK 0
30 *459:58 *540:54 0
31 *459:58 *752:84 0.000140311
32 *1808:C *459:43 3.49456e-06
33 *2112:D *459:58 6.26466e-05
34 *2113:D *1815:D 2.8266e-06
35 *2121:SET_B *1811:B 5.50052e-05
*RES
1 *1808:X *459:10 15.675 
2 *459:10 *1809:C 18.4607 
3 *459:10 *1811:B 19.8536 
4 *1808:X *459:43 11.925 
5 *459:43 *1810:B 9.3 
6 *459:43 *459:58 13.8571 
7 *459:58 *1815:D 18.8357 
8 *459:58 *1814:A3 13.8 
*END

*D_NET *460 0.000519802
*CONN
*I *1812:A I *D sky130_fd_sc_hd__and2_2
*I *1813:B I *D sky130_fd_sc_hd__xnor2_2
*I *1810:Y O *D sky130_fd_sc_hd__nand2_2
*CAP
1 *1812:A 6.77158e-05
2 *1813:B 7.40342e-05
3 *1810:Y 0.00014175
4 *1813:B *1809:A 7.48554e-05
5 *1813:B *1813:A 7.7939e-05
6 *1811:B *1813:B 8.08608e-06
7 *459:43 *1812:A 1.91004e-05
8 *459:58 *1812:A 5.63208e-05
*RES
1 *1810:Y *1813:B 29.85 
2 *1810:Y *1812:A 19.975 
*END

*D_NET *461 0.000663644
*CONN
*I *1812:B I *D sky130_fd_sc_hd__and2_2
*I *1811:X O *D sky130_fd_sc_hd__or2_2
*CAP
1 *1812:B 0.000170816
2 *1811:X 0.000170816
3 *1812:B *1811:A 5.107e-05
4 *1812:B *2111:CLK 0.000171355
5 *1812:B *752:12 3.8206e-05
6 *2112:D *1812:B 6.13812e-05
*RES
1 *1811:X *1812:B 31.975 
*END

*D_NET *462 0.000973128
*CONN
*I *1816:B I *D sky130_fd_sc_hd__nor3_2
*I *1814:Y O *D sky130_fd_sc_hd__a31oi_2
*CAP
1 *1816:B 0.000178731
2 *1814:Y 0.000178731
3 *1816:B *1658:B 0.000132496
4 *1816:B *1658:C_N 0.000250208
5 *1816:B *1814:A1 9.25014e-06
6 *1816:B *1816:C 5.52302e-05
7 *1816:B *754:23 0.000119618
8 *1658:A *1816:B 4.88637e-05
*RES
1 *1814:Y *1816:B 33.6357 
*END

*D_NET *463 0.0020585
*CONN
*I *1816:C I *D sky130_fd_sc_hd__nor3_2
*I *1817:B I *D sky130_fd_sc_hd__and2_2
*I *1819:A2 I *D sky130_fd_sc_hd__o21a_2
*I *1815:X O *D sky130_fd_sc_hd__and4_2
*CAP
1 *1816:C 9.78263e-05
2 *1817:B 0.000246717
3 *1819:A2 3.36229e-05
4 *1815:X 0.000117734
5 *463:12 0.000422266
6 *463:8 0.000357487
7 *1816:C *1816:A 7.77751e-05
8 *1817:B *1817:A 9.90431e-05
9 *1817:B *1819:A1 5.71472e-05
10 *1817:B *464:10 0.000125184
11 *463:8 *1658:B 0
12 *1658:A *1816:C 9.60939e-05
13 *1816:B *1816:C 5.52302e-05
14 *2113:D *463:8 0
15 *365:12 *463:12 0
16 *365:20 *1816:C 0.000272371
17 *366:10 *463:8 0
18 *366:10 *463:12 0
19 *366:23 *463:8 0
*RES
1 *1815:X *463:8 15.7464 
2 *463:8 *463:12 6.44643 
3 *463:12 *1819:A2 9.83571 
4 *463:12 *1817:B 14.8 
5 *463:8 *1816:C 17.2107 
*END

*D_NET *464 0.00420173
*CONN
*I *1822:A2 I *D sky130_fd_sc_hd__a21oi_2
*I *1820:B I *D sky130_fd_sc_hd__xor2_2
*I *1818:B I *D sky130_fd_sc_hd__nor2_2
*I *1821:C I *D sky130_fd_sc_hd__and3_2
*I *1817:X O *D sky130_fd_sc_hd__and2_2
*CAP
1 *1822:A2 0
2 *1820:B 0.000109604
3 *1818:B 0.000116655
4 *1821:C 0.000261971
5 *1817:X 0.000542369
6 *464:29 0.000226259
7 *464:16 0.000342522
8 *464:10 0.00062292
9 *1821:C *1823:A 9.90431e-05
10 *1821:C *2142:A 0.000376384
11 *1821:C *2160:A 0.000219134
12 *1821:C *2190:A 0.00022115
13 *1821:C *466:8 8.25843e-06
14 *1821:C *539:35 0.000249923
15 *464:10 *1817:A 5.33433e-05
16 *464:10 *1819:A1 6.05161e-06
17 *464:10 *2142:A 0.00013053
18 *464:10 *755:19 0
19 *464:16 *2142:A 0.000168822
20 *464:16 *2160:A 3.63298e-05
21 *464:16 *2190:A 0.000116708
22 *1817:B *464:10 0.000125184
23 *1818:A *1818:B 4.42174e-05
24 *1818:A *464:10 7.85979e-05
25 *365:12 *464:10 0
26 *367:20 *464:10 4.57538e-05
*RES
1 *1817:X *464:10 23.2286 
2 *464:10 *464:16 2.91071 
3 *464:16 *1821:C 23.175 
4 *464:16 *464:29 4.5 
5 *464:29 *1818:B 11.5143 
6 *464:29 *1820:B 1.70536 
7 *464:10 *1822:A2 13.8 
*END

*D_NET *465 0.00109157
*CONN
*I *1819:B1 I *D sky130_fd_sc_hd__o21a_2
*I *1818:Y O *D sky130_fd_sc_hd__nor2_2
*CAP
1 *1819:B1 0.000184709
2 *1818:Y 0.000184709
3 *1818:A *1819:B1 0.000370576
4 *2114:D *1819:B1 8.16036e-05
5 *365:12 *1819:B1 0
6 *366:10 *1819:B1 0.000127177
7 *367:20 *1819:B1 0.000142797
*RES
1 *1818:Y *1819:B1 34.4036 
*END

*D_NET *466 0.00482351
*CONN
*I *1825:C I *D sky130_fd_sc_hd__and3_2
*I *1823:A I *D sky130_fd_sc_hd__nor2_2
*I *1824:B I *D sky130_fd_sc_hd__xor2_2
*I *1826:A2 I *D sky130_fd_sc_hd__a21oi_2
*I *1821:X O *D sky130_fd_sc_hd__and3_2
*CAP
1 *1825:C 0.000244545
2 *1823:A 0.000122288
3 *1824:B 0.000506702
4 *1826:A2 0.000118111
5 *1821:X 0
6 *466:8 0.0011342
7 *466:4 0.000876216
8 *1823:A *1821:A 5.71472e-05
9 *1823:A *1821:B 1.74352e-05
10 *1824:B *2251:A 0
11 *1824:B *685:26 0.000519856
12 *1825:C *1825:B 0.000177025
13 *1825:C *2114:CLK 0.000116014
14 *1825:C *685:26 0
15 *1825:C *685:28 0
16 *1825:C *685:41 0
17 *1825:C *743:32 8.75701e-05
18 *1826:A2 *1826:A1 2.39779e-05
19 *1826:A2 *1827:B 0.000121573
20 *1826:A2 *2251:A 0
21 *1826:A2 *685:26 0.000244628
22 *466:8 *1827:B 1.58163e-05
23 *466:8 *1992:A 3.67257e-05
24 *466:8 *2251:A 2.89114e-05
25 *466:8 *684:40 8.55687e-05
26 *466:8 *688:27 0.000107763
27 *1821:C *1823:A 9.90431e-05
28 *1821:C *466:8 8.25843e-06
29 *2114:RESET_B *1825:C 1.78353e-05
30 *2116:D *1823:A 5.62995e-05
*RES
1 *1821:X *466:4 9.3 
2 *466:4 *466:8 14.0714 
3 *466:8 *1826:A2 16.9607 
4 *466:8 *1824:B 11.3036 
5 *466:4 *1823:A 12.5143 
6 *1824:B *1825:C 24.8 
*END

*D_NET *467 0.00107438
*CONN
*I *2190:A I *D sky130_fd_sc_hd__dlygate4sd3_1
*I *1822:Y O *D sky130_fd_sc_hd__a21oi_2
*CAP
1 *2190:A 0.000185192
2 *1822:Y 0.000185192
3 *2190:A *1822:A1 1.24368e-05
4 *2190:A *2160:A 0.000337183
5 *2190:A *535:290 1.65169e-05
6 *1821:C *2190:A 0.00022115
7 *464:16 *2190:A 0.000116708
*RES
1 *1822:Y *2190:A 32.9214 
*END

*D_NET *468 0.00444522
*CONN
*I *1828:B I *D sky130_fd_sc_hd__nand2_2
*I *1827:A I *D sky130_fd_sc_hd__nor2_2
*I *1829:B I *D sky130_fd_sc_hd__xor2_2
*I *1825:X O *D sky130_fd_sc_hd__and3_2
*CAP
1 *1828:B 0.000282769
2 *1827:A 0
3 *1829:B 0.000490271
4 *1825:X 0.000827512
5 *468:14 0.00103501
6 *1828:B *1894:B1_N 9.80173e-05
7 *1828:B *2158:A 5.03772e-05
8 *1828:B *548:12 0.000197714
9 *1828:B *682:34 0
10 *1828:B *688:27 4.96254e-05
11 *1829:B *1829:A 9.99853e-05
12 *1829:B *688:27 0.000584101
13 *468:14 *1824:A 0.000127246
14 *468:14 *685:26 0.00022525
15 *468:14 *685:28 0.000125225
16 *468:14 *685:41 5.39751e-05
17 *468:14 *687:18 1.90936e-05
18 *468:14 *688:27 2.96677e-05
19 *2118:D *468:14 0.000149372
*RES
1 *1825:X *468:14 34.6929 
2 *468:14 *1829:B 6.25893 
3 *468:14 *1827:A 9.3 
4 *1829:B *1828:B 24.3446 
*END

*D_NET *469 0.000740458
*CONN
*I *1827:B I *D sky130_fd_sc_hd__nor2_2
*I *1826:Y O *D sky130_fd_sc_hd__a21oi_2
*CAP
1 *1827:B 0.000167125
2 *1826:Y 0.000167125
3 *1827:B *1826:A1 7.6644e-05
4 *1827:B *688:27 0.000136951
5 *1631:C *1827:B 5.52238e-05
6 *1826:A2 *1827:B 0.000121573
7 *466:8 *1827:B 1.58163e-05
*RES
1 *1826:Y *1827:B 31.1357 
*END

*D_NET *470 0.00163655
*CONN
*I *1830:B I *D sky130_fd_sc_hd__xnor2_2
*I *1828:Y O *D sky130_fd_sc_hd__nand2_2
*CAP
1 *1830:B 0.000472453
2 *1828:Y 0.000472453
3 *1830:B *1803:B1 9.84729e-05
4 *1830:B *1828:A 0.000134461
5 *1830:B *688:60 0.000458713
6 *2120:RESET_B *1830:B 0
*RES
1 *1828:Y *1830:B 37.0286 
*END

*D_NET *471 0.00406881
*CONN
*I *1832:B I *D sky130_fd_sc_hd__nor2_2
*I *1833:B I *D sky130_fd_sc_hd__nor2_2
*I *1831:Y O *D sky130_fd_sc_hd__nor2_2
*CAP
1 *1832:B 2.18949e-05
2 *1833:B 0.000163952
3 *1831:Y 0.00092222
4 *471:12 0.00110807
5 *1832:B *731:68 7.15503e-05
6 *1833:B *731:12 9.67754e-05
7 *1833:B *731:68 2.24804e-05
8 *471:12 *2157:A 0
9 *471:12 *681:8 0.000438481
10 *1831:A *471:12 0.000221634
11 *1831:B *471:12 1.48616e-05
12 *2099:D *471:12 5.32071e-05
13 *2100:D *1833:B 0.000104
14 *2100:D *471:12 0.00052956
15 *411:16 *1833:B 0
16 *412:14 *1832:B 0.000141941
17 *412:14 *1833:B 0.000137639
18 *449:12 *471:12 2.05418e-05
*RES
1 *1831:Y *471:12 35.4429 
2 *471:12 *1833:B 22.5143 
3 *471:12 *1832:B 10.6571 
*END

*D_NET *472 0.000853712
*CONN
*I *1835:C1 I *D sky130_fd_sc_hd__a311o_2
*I *1834:Y O *D sky130_fd_sc_hd__nor3_2
*CAP
1 *1835:C1 0.000150774
2 *1834:Y 0.000150774
3 *1835:C1 *1834:B 1.33343e-05
4 *1835:C1 *1835:A3 5.33005e-05
5 *1835:C1 *1836:A 0.000260574
6 *1835:C1 *1836:C 5.71472e-05
7 *1835:C1 *750:35 8.55657e-05
8 *1835:C1 *751:14 1.21258e-05
9 *1835:C1 *751:16 1.39726e-05
10 *1835:B1 *1835:C1 5.61433e-05
*RES
1 *1834:Y *1835:C1 22.85 
*END

*D_NET *473 0.00040445
*CONN
*I *1836:C I *D sky130_fd_sc_hd__or4b_2
*I *1835:X O *D sky130_fd_sc_hd__a311o_2
*CAP
1 *1836:C 0.000141539
2 *1835:X 0.000141539
3 *1836:C *1836:A 6.42242e-05
4 *1835:C1 *1836:C 5.71472e-05
*RES
1 *1835:X *1836:C 29.7786 
*END

*D_NET *474 0.000267515
*CONN
*I *1840:B I *D sky130_fd_sc_hd__or4_2
*I *1837:X O *D sky130_fd_sc_hd__or4bb_2
*CAP
1 *1840:B 0.000107091
2 *1837:X 0.000107091
3 *1840:B *1837:C_N 5.33334e-05
*RES
1 *1837:X *1840:B 19.9571 
*END

*D_NET *475 0.00127228
*CONN
*I *1840:C I *D sky130_fd_sc_hd__or4_2
*I *1838:X O *D sky130_fd_sc_hd__or4bb_2
*CAP
1 *1840:C 0.000301478
2 *1838:X 0.000301478
3 *1840:C *1675:A 0
4 *1840:C *1676:A 0.000213898
5 *1840:C *1837:C_N 0.000100979
6 *1840:C *757:14 0.000125111
7 *1840:C *758:22 5.32956e-05
8 *1648:B *1840:C 4.79842e-05
9 *1679:B *1840:C 0.000128054
10 *1840:A *1840:C 0
*RES
1 *1838:X *1840:C 35.6179 
*END

*D_NET *476 0.00039675
*CONN
*I *1840:D I *D sky130_fd_sc_hd__or4_2
*I *1839:Y O *D sky130_fd_sc_hd__nand3b_2
*CAP
1 *1840:D 0.000130491
2 *1839:Y 0.000130491
3 *1840:D *765:25 3.67257e-05
4 *1840:D *766:28 9.90431e-05
5 *1648:B *1840:D 0
6 *1676:C *1840:D 0
*RES
1 *1839:Y *1840:D 30.1893 
*END

*D_NET *477 0.000638399
*CONN
*I *1845:B1 I *D sky130_fd_sc_hd__o21a_2
*I *1844:Y O *D sky130_fd_sc_hd__a21oi_2
*CAP
1 *1845:B1 0.000241837
2 *1844:Y 0.000241837
3 *1845:B1 *1844:B1 2.21972e-05
4 *1845:B1 *1847:A1 5.71472e-05
5 *1845:B1 *659:38 5.52302e-05
6 *1845:B1 *662:14 0
7 *1845:B1 *678:28 4.52208e-06
8 *1845:A2 *1845:B1 1.56278e-05
9 *447:30 *1845:B1 0
*RES
1 *1844:Y *1845:B1 31.3143 
*END

*D_NET *478 0.0064558
*CONN
*I *1848:A I *D sky130_fd_sc_hd__nor2_2
*I *1846:Y O *D sky130_fd_sc_hd__a21oi_2
*CAP
1 *1848:A 0.00189593
2 *1846:Y 0.000271993
3 *478:20 0.00216793
4 *1848:A *1849:A1 2.59355e-05
5 *1848:A *1849:B1 0.000146404
6 *1848:A *1953:A 2.85321e-05
7 *1848:A *2018:CLK 0.000535738
8 *1848:A *2191:A 0.000103017
9 *1848:A *662:14 9.11048e-06
10 *1848:A *662:45 6.63763e-05
11 *1848:A *723:8 6.17428e-05
12 *478:20 *1732:B1 6.14702e-06
13 *478:20 *1846:A1 2.23592e-05
14 *478:20 *1846:B1 5.52238e-05
15 *478:20 *2156:A 0.000134109
16 *478:20 *484:12 3.79254e-05
17 *1732:A1 *478:20 0.000145341
18 *1732:A2 *478:20 0.00015161
19 *1733:B *478:20 9.58181e-05
20 *2018:D *1848:A 7.6032e-05
21 *291:22 *1848:A 0.000182806
22 *291:22 *478:20 0.000235722
*RES
1 *1846:Y *478:20 35.1393 
2 *478:20 *1848:A 43.3179 
*END

*D_NET *479 0.00467243
*CONN
*I *1848:B I *D sky130_fd_sc_hd__nor2_2
*I *1847:X O *D sky130_fd_sc_hd__a31o_2
*CAP
1 *1848:B 0
2 *1847:X 0.00155641
3 *479:18 0.00155641
4 *479:18 *1732:B1 0
5 *479:18 *1847:B1 0
6 *479:18 *1855:A2 0.000988528
7 *479:18 *2018:CLK 0.000215636
8 *479:18 *2294:A 8.44372e-05
9 *479:18 *536:20 2.57552e-06
10 *479:18 *659:14 9.67754e-05
11 *2018:D *479:18 0.00013874
12 *254:14 *479:18 3.2923e-05
*RES
1 *1847:X *479:18 43.6214 
2 *479:18 *1848:B 9.3 
*END

*D_NET *480 0.00158772
*CONN
*I *1851:B I *D sky130_fd_sc_hd__nor3_2
*I *1849:Y O *D sky130_fd_sc_hd__a31oi_2
*CAP
1 *1851:B 0.000352948
2 *1849:Y 0.000352948
3 *1851:B *2191:A 0.000443618
4 *1851:B *2290:A 5.50052e-05
5 *1851:B *536:12 0.000186697
6 *1851:B *536:20 0.00014852
7 *2019:D *1851:B 4.79864e-05
*RES
1 *1849:Y *1851:B 36.2071 
*END

*D_NET *481 0.00571362
*CONN
*I *1851:C I *D sky130_fd_sc_hd__nor3_2
*I *1855:A2 I *D sky130_fd_sc_hd__o21a_2
*I *1850:X O *D sky130_fd_sc_hd__and4_2
*CAP
1 *1851:C 0.000490528
2 *1855:A2 0.000333594
3 *1850:X 0.000770695
4 *481:14 0.00159482
5 *1851:C *1855:A1 0.000141941
6 *1855:A2 *1946:A 0.000394136
7 *1855:A2 *2156:A 7.36469e-05
8 *1855:A2 *536:20 0.000111981
9 *1855:A2 *679:10 0.000102146
10 *481:14 *1846:B1 0.000232399
11 *481:14 *1850:B 9.63908e-05
12 *481:14 *1850:C 1.03037e-05
13 *481:14 *659:44 7.49387e-06
14 *481:14 *662:14 0
15 *481:14 *662:29 0.000147492
16 *1850:D *481:14 4.23644e-06
17 *2017:D *1851:C 1.6815e-05
18 *2017:D *1855:A2 1.64343e-05
19 *2017:D *481:14 0.000102734
20 *2019:D *1851:C 5.01234e-05
21 *2057:RESET_B *1855:A2 2.11336e-05
22 *254:14 *1855:A2 6.05161e-06
23 *479:18 *1855:A2 0.000988528
*RES
1 *1850:X *481:14 24.7464 
2 *481:14 *1855:A2 26.8 
3 *481:14 *1851:C 22.2643 
*END

*D_NET *482 0.00702369
*CONN
*I *1880:A I *D sky130_fd_sc_hd__nand4_2
*I *1882:A I *D sky130_fd_sc_hd__and4_2
*I *1853:B I *D sky130_fd_sc_hd__and2_2
*I *1866:B I *D sky130_fd_sc_hd__and3_2
*I *1852:X O *D sky130_fd_sc_hd__and4_2
*CAP
1 *1880:A 0.000205477
2 *1882:A 0.000181194
3 *1853:B 0.000581979
4 *1866:B 0
5 *1852:X 0.000189719
6 *482:34 0.00100983
7 *482:12 0.0010464
8 *482:8 0.0012773
9 *1853:B *1858:A2 9.99791e-05
10 *1853:B *1867:C 9.90367e-05
11 *1853:B *2294:A 0.000145403
12 *1853:B *492:43 0.000212153
13 *1880:A *2292:A 2.18728e-05
14 *1880:A *2299:A 9.84729e-05
15 *1880:A *495:26 0
16 *1880:A *686:37 9.84729e-05
17 *1880:A *697:14 1.42353e-05
18 *1882:A *1872:B 4.46231e-06
19 *1882:A *495:26 0.000184745
20 *482:8 *1865:D 0
21 *482:8 *1867:C 4.46186e-06
22 *482:8 *2286:A 0.000125731
23 *482:8 *536:8 0
24 *482:12 *1867:C 0.000137733
25 *482:12 *667:12 0.000137983
26 *482:12 *667:55 0.000130419
27 *482:34 *1863:A1 0
28 *482:34 *1865:D 2.17841e-05
29 *482:34 *1867:C 4.79015e-05
30 *482:34 *2140:A 0
31 *482:34 *2292:A 0.00019652
32 *482:34 *495:26 0
33 *482:34 *535:86 0
34 *482:34 *536:8 0
35 *482:34 *679:79 0.000311021
36 *1853:A *1853:B 0.000125498
37 *2023:D *482:34 0
38 *402:8 *1853:B 6.56643e-05
39 *404:16 *1853:B 0.000230807
40 *404:22 *1853:B 1.74352e-05
41 *454:14 *1853:B 0
*RES
1 *1852:X *482:8 17.2643 
2 *482:8 *482:12 10.7857 
3 *482:12 *1866:B 9.3 
4 *482:12 *1853:B 28.3 
5 *482:8 *482:34 12.2679 
6 *482:34 *1882:A 16.4071 
7 *482:34 *1880:A 18.2107 
*END

*D_NET *483 0.00911591
*CONN
*I *1857:A2 I *D sky130_fd_sc_hd__o21a_2
*I *1859:C I *D sky130_fd_sc_hd__and3_2
*I *1861:D I *D sky130_fd_sc_hd__and4_2
*I *1854:B I *D sky130_fd_sc_hd__nor2_2
*I *1856:A2 I *D sky130_fd_sc_hd__a21oi_2
*I *1858:A2 I *D sky130_fd_sc_hd__a21oi_2
*I *1853:X O *D sky130_fd_sc_hd__and2_2
*CAP
1 *1857:A2 0.000178547
2 *1859:C 0.000190691
3 *1861:D 0
4 *1854:B 0.000373295
5 *1856:A2 8.83788e-05
6 *1858:A2 1.21672e-05
7 *1853:X 0.000411906
8 *483:61 0.000632822
9 *483:39 0.00102392
10 *483:24 0.000899221
11 *483:18 0.000823535
12 *1854:B *488:10 7.83769e-06
13 *1856:A2 *1856:B1 0
14 *1856:A2 *1857:B1 0
15 *1856:A2 *659:14 2.8266e-06
16 *1857:A2 *1857:A1 7.91806e-05
17 *1857:A2 *1886:B 1.55885e-05
18 *1857:A2 *1978:A 9.41642e-05
19 *1857:A2 *492:43 3.0285e-05
20 *1859:C *1859:A 0.000183726
21 *1859:C *487:8 2.32517e-05
22 *483:18 *1858:A1 8.43535e-06
23 *483:18 *1860:B 0.000258011
24 *483:24 *1857:B1 0
25 *483:24 *1860:B 0.000139907
26 *483:39 *1858:B1 5.33334e-05
27 *483:39 *1860:B 8.86977e-05
28 *483:39 *1861:C 0.000530988
29 *483:39 *667:18 0.000277986
30 *483:61 *492:43 0.000140485
31 *483:61 *675:16 2.04825e-05
32 pcRegister[1] *1854:B 0.000126122
33 pcRegister[3] *483:39 0.000271619
34 pcRegister[4] *1854:B 0.000502378
35 pcRegister[6] *1854:B 0
36 *1853:B *1858:A2 9.99791e-05
37 *2089:RESET_B *1857:A2 0.000136951
38 *402:8 *1858:A2 0.00010096
39 *402:8 *483:18 0.000265447
40 *404:22 *483:61 0.000148189
41 *447:18 *1857:A2 9.0573e-05
42 *447:18 *483:61 0.000267821
43 *447:20 *483:61 0.000148911
44 *447:26 *483:24 7.92056e-05
45 *447:26 *483:61 0.000119039
46 *447:30 *1856:A2 0.00014955
47 *447:30 *483:24 1.94945e-05
*RES
1 *1853:X *1858:A2 19.5464 
2 *1853:X *483:18 14.7643 
3 *483:18 *483:24 7.19643 
4 *483:24 *1856:A2 15.7464 
5 *483:24 *483:39 18.6071 
6 *483:39 *1854:B 26.5679 
7 *483:39 *1861:D 9.3 
8 *483:18 *483:61 11.9107 
9 *483:61 *1859:C 16.3893 
10 *483:61 *1857:A2 18.1571 
*END

*D_NET *484 0.00501527
*CONN
*I *1855:B1 I *D sky130_fd_sc_hd__o21a_2
*I *1854:Y O *D sky130_fd_sc_hd__nor2_2
*CAP
1 *1855:B1 0
2 *1854:Y 0.00200237
3 *484:12 0.00200237
4 *484:12 *1854:A 0.00026185
5 *484:12 *2064:CLK 3.4689e-05
6 *484:12 *2155:A 6.96806e-05
7 *484:12 *677:10 8.16995e-05
8 *484:12 *738:10 6.04539e-05
9 pcRegister[4] *484:12 9.35794e-06
10 *2019:D *484:12 1.64343e-05
11 *2064:D *484:12 2.81379e-05
12 *2064:RESET_B *484:12 0.000219665
13 *254:14 *484:12 0.000190636
14 *478:20 *484:12 3.79254e-05
*RES
1 *1854:Y *484:12 45.7821 
2 *484:12 *1855:B1 9.3 
*END

*D_NET *485 0.00201399
*CONN
*I *1857:B1 I *D sky130_fd_sc_hd__o21a_2
*I *1856:Y O *D sky130_fd_sc_hd__a21oi_2
*CAP
1 *1857:B1 0.000407382
2 *1856:Y 0.000407382
3 *1857:B1 *1856:B1 0.000113056
4 *1857:B1 *1863:B1 0.00040197
5 *1857:B1 *1866:C 8.62035e-05
6 *1857:B1 *491:23 0.000251915
7 *1857:B1 *535:106 3.43988e-06
8 *1857:B1 *667:55 0
9 *1857:B1 *677:50 0.000342642
10 *1856:A2 *1857:B1 0
11 *447:26 *1857:B1 0
12 *483:24 *1857:B1 0
*RES
1 *1856:Y *1857:B1 38.9571 
*END

*D_NET *486 0.00310729
*CONN
*I *1860:B I *D sky130_fd_sc_hd__nor3_2
*I *1858:Y O *D sky130_fd_sc_hd__a21oi_2
*CAP
1 *1860:B 0.000714959
2 *1858:Y 0.000714959
3 *1860:B *1858:A1 6.05161e-06
4 *1860:B *1858:B1 0.000442628
5 *1860:B *1861:A 0
6 *1860:B *1867:A 2.93304e-05
7 *1860:B *667:18 0.000702467
8 *1711:B1_N *1860:B 1.02821e-05
9 *483:18 *1860:B 0.000258011
10 *483:24 *1860:B 0.000139907
11 *483:39 *1860:B 8.86977e-05
*RES
1 *1858:Y *1860:B 43.5286 
*END

*D_NET *487 0.00546509
*CONN
*I *1863:A2 I *D sky130_fd_sc_hd__o21a_2
*I *1860:C I *D sky130_fd_sc_hd__nor3_2
*I *1859:X O *D sky130_fd_sc_hd__and3_2
*CAP
1 *1863:A2 0.000295944
2 *1860:C 0.000730175
3 *1859:X 0.000207477
4 *487:8 0.0012336
5 *1860:C *1866:C 8.86413e-05
6 *1860:C *1867:A 1.28171e-05
7 *1860:C *1867:C 0.000847342
8 *1860:C *2022:CLK 4.73625e-05
9 *1860:C *492:43 6.05161e-06
10 *1860:C *667:55 0.000337644
11 *1863:A2 *495:26 0.000113306
12 *1863:A2 *535:106 9.28458e-05
13 *1863:A2 *667:55 7.05375e-05
14 *487:8 *1859:A 9.05499e-05
15 *487:8 *666:6 0.00018372
16 *1859:C *487:8 2.32517e-05
17 *1866:A *1860:C 0.000183713
18 *2022:D *1860:C 1.02936e-05
19 *2023:D *1863:A2 0.000181803
20 *2089:RESET_B *487:8 1.92789e-05
21 *447:18 *1860:C 0.000162125
22 *447:18 *1863:A2 0.000355243
23 *447:20 *1860:C 0.00013966
24 *447:26 *1860:C 3.17148e-05
*RES
1 *1859:X *487:8 18.0321 
2 *487:8 *1860:C 29.7464 
3 *487:8 *1863:A2 21.9071 
*END

*D_NET *488 0.00275988
*CONN
*I *1864:B I *D sky130_fd_sc_hd__nor2_2
*I *1862:B I *D sky130_fd_sc_hd__nor2_2
*I *1861:X O *D sky130_fd_sc_hd__and4_2
*CAP
1 *1864:B 0.000216256
2 *1862:B 0.000183703
3 *1861:X 0.000310133
4 *488:10 0.000710092
5 *1862:B *668:12 0.000226265
6 *1862:B *668:31 4.08637e-05
7 *1864:B *1864:A 0.000154762
8 *1864:B *1867:B 0.000530688
9 *1864:B *2296:A 0
10 *1864:B *668:12 5.56943e-05
11 *488:10 *1861:A 0
12 *488:10 *1867:B 0.000227736
13 *488:10 *2296:A 0
14 pcRegister[4] *488:10 2.92136e-05
15 pcRegister[7] *488:10 3.84268e-05
16 pcRegister[8] *1864:B 2.82057e-05
17 *1854:B *488:10 7.83769e-06
18 *2024:D *1864:B 0
*RES
1 *1861:X *488:10 19.5321 
2 *488:10 *1862:B 17.6393 
3 *488:10 *1864:B 21.2107 
*END

*D_NET *489 0.00354683
*CONN
*I *1863:B1 I *D sky130_fd_sc_hd__o21a_2
*I *1862:Y O *D sky130_fd_sc_hd__nor2_2
*CAP
1 *1863:B1 0.00134958
2 *1862:Y 0.00134958
3 *1863:B1 *1860:A 4.7091e-05
4 *1863:B1 *1867:A 0
5 *1863:B1 *491:23 9.3231e-05
6 *1863:B1 *535:106 0.000305386
7 *1863:B1 *677:31 0
8 *1857:B1 *1863:B1 0.00040197
*RES
1 *1862:Y *1863:B1 44.3395 
*END

*D_NET *490 0.00200548
*CONN
*I *1867:B I *D sky130_fd_sc_hd__nor3_2
*I *1864:Y O *D sky130_fd_sc_hd__nor2_2
*CAP
1 *1867:B 0.000383717
2 *1864:Y 0.000383717
3 *1867:B *1867:A 6.82092e-05
4 *1867:B *1867:C 5.38444e-06
5 pcRegister[11] *1867:B 3.85374e-05
6 pcRegister[7] *1867:B 0.000283168
7 pcRegister[8] *1867:B 4.50149e-05
8 pcRegister[9] *1867:B 3.93114e-05
9 *1864:B *1867:B 0.000530688
10 *488:10 *1867:B 0.000227736
*RES
1 *1864:Y *1867:B 40.1536 
*END

*D_NET *491 0.00428788
*CONN
*I *1880:B I *D sky130_fd_sc_hd__nand4_2
*I *1882:B I *D sky130_fd_sc_hd__and4_2
*I *1866:C I *D sky130_fd_sc_hd__and3_2
*I *1865:X O *D sky130_fd_sc_hd__and4_2
*CAP
1 *1880:B 0.000311143
2 *1882:B 8.42119e-05
3 *1866:C 0.000325704
4 *1865:X 0.00022893
5 *491:23 0.000689118
6 *491:8 0.000848397
7 *1866:C *1863:A1 0.000145411
8 *1866:C *2140:A 6.18969e-06
9 *1866:C *536:8 3.0305e-05
10 *1866:C *677:50 7.6644e-05
11 *1880:B *1872:B 5.13995e-05
12 *1880:B *1880:D 0.000193918
13 *1880:B *1882:C 2.02389e-05
14 *1880:B *559:16 4.27373e-05
15 *1880:B *697:39 0
16 *1882:B *535:86 6.82912e-05
17 *491:8 *1865:C 4.16984e-05
18 *491:8 *2021:CLK 0.000102197
19 *491:23 *1863:A1 0.000181217
20 *491:23 *1880:D 3.32723e-05
21 *491:23 *500:10 7.83659e-05
22 *491:23 *535:86 0
23 *491:23 *535:106 0
24 *491:23 *559:16 4.27842e-06
25 *1857:B1 *1866:C 8.62035e-05
26 *1857:B1 *491:23 0.000251915
27 *1860:C *1866:C 8.86413e-05
28 *1863:B1 *491:23 9.3231e-05
29 *1866:A *1866:C 0.00010096
30 *2021:D *491:23 0.000103267
*RES
1 *1865:X *491:8 16.8 
2 *491:8 *1866:C 19.8536 
3 *491:8 *491:23 8.25 
4 *491:23 *1882:B 15.1571 
5 *491:23 *1880:B 24.241 
*END

*D_NET *492 0.0146807
*CONN
*I *1870:A2 I *D sky130_fd_sc_hd__a21oi_2
*I *1877:B I *D sky130_fd_sc_hd__and3_2
*I *1868:A2 I *D sky130_fd_sc_hd__o21ai_2
*I *1876:A1 I *D sky130_fd_sc_hd__a21oi_2
*I *1874:A I *D sky130_fd_sc_hd__nand2_2
*I *1869:A2 I *D sky130_fd_sc_hd__a21oi_2
*I *1871:C I *D sky130_fd_sc_hd__and3_2
*I *1867:C I *D sky130_fd_sc_hd__nor3_2
*I *1866:X O *D sky130_fd_sc_hd__and3_2
*CAP
1 *1870:A2 4.62067e-05
2 *1877:B 6.8383e-05
3 *1868:A2 2.23854e-05
4 *1876:A1 0.000139338
5 *1874:A 0.000492687
6 *1869:A2 4.67349e-05
7 *1871:C 7.34523e-05
8 *1867:C 0.000801769
9 *1866:X 0
10 *492:87 0.00103829
11 *492:79 0.000845009
12 *492:71 0.000632589
13 *492:60 0.000508752
14 *492:43 0.000877237
15 *492:4 0.0013376
16 *1867:C *1865:D 6.62702e-05
17 *1867:C *1867:A 0.00040015
18 *1867:C *667:12 0.000137983
19 *1867:C *667:55 0.000142856
20 *1869:A2 *1870:B1 5.50052e-05
21 *1869:A2 *1872:B 4.97967e-05
22 *1869:A2 *1873:A 3.5097e-05
23 *1870:A2 *1870:A1 5.49995e-05
24 *1870:A2 *1873:A 0.000185408
25 *1871:C *1609:A 2.72967e-05
26 *1874:A *2025:CLK 5.65955e-05
27 *1874:A *543:37 5.80706e-06
28 *1874:A *686:12 0.000193132
29 *1876:A1 *1899:A2 5.71472e-05
30 *1877:B *496:22 0.000272665
31 *1877:B *703:10 0.000263415
32 *492:43 *1609:A 2.75059e-05
33 *492:43 *1871:B 0.000124868
34 *492:43 *1873:B 6.87834e-06
35 *492:43 *1881:A 0
36 *492:43 *1886:B 1.08359e-05
37 *492:43 *2240:A 7.81834e-05
38 *492:43 *666:10 5.75896e-05
39 *492:43 *675:16 7.69776e-06
40 *492:43 *697:39 6.27272e-06
41 *492:60 *1870:A1 8.63998e-05
42 *492:60 *1871:B 0.000346138
43 *492:60 *1873:B 3.65766e-05
44 *492:60 *1873:C 5.33005e-05
45 *492:60 *1885:A2 1.52801e-06
46 *492:60 *504:19 0.000352522
47 *492:60 *686:50 0.000100248
48 *492:71 *1870:A1 2.53112e-06
49 *492:71 *1879:B 0.000147994
50 *492:71 *496:22 0.000122682
51 *492:71 *504:19 0
52 *492:71 *703:10 0.000120975
53 *492:79 *1883:A1 5.97283e-05
54 *492:79 *1883:B1 6.15625e-05
55 *492:79 *2298:A 0.000307363
56 *492:87 *1873:A 3.34366e-05
57 *492:87 *1875:B1 0
58 *492:87 *1876:A2 0
59 *492:87 *1888:A 0
60 *492:87 *1899:A1 4.46186e-06
61 *492:87 *2298:A 0.000182694
62 *492:87 *686:27 0.000114111
63 *492:87 *702:10 0.000137939
64 *492:87 *702:12 0.000164561
65 pcRegister[15] *1874:A 0
66 *1713:B1 *492:43 8.25843e-06
67 *1853:B *1867:C 9.90367e-05
68 *1853:B *492:43 0.000212153
69 *1857:A2 *492:43 3.0285e-05
70 *1860:C *1867:C 0.000847342
71 *1860:C *492:43 6.05161e-06
72 *1866:A *492:43 1.56e-05
73 *1867:B *1867:C 5.38444e-06
74 *1875:C1 *1868:A2 0
75 *1875:C1 *492:79 0.000111428
76 *1875:C1 *492:87 9.3111e-05
77 *2022:D *1867:C 0.000154227
78 *2025:D *1874:A 0.000345326
79 *2025:D *1876:A1 0.000137515
80 *2029:D *492:79 0.00018077
81 *2030:D *492:43 4.40809e-05
82 *2063:D *492:43 0.00019299
83 *169:28 *492:79 9.60875e-05
84 *404:22 *492:43 7.97875e-05
85 *482:8 *1867:C 4.46186e-06
86 *482:12 *1867:C 0.000137733
87 *482:34 *1867:C 4.79015e-05
88 *483:61 *492:43 0.000140485
*RES
1 *1866:X *492:4 9.3 
2 *492:4 *1867:C 36.2464 
3 *492:4 *492:43 18.3929 
4 *492:43 *1871:C 14.7464 
5 *492:43 *492:60 12.8929 
6 *492:60 *1869:A2 10.6571 
7 *492:60 *492:71 7.96429 
8 *492:71 *492:79 12.7679 
9 *492:79 *492:87 18.1786 
10 *492:87 *1874:A 28.8893 
11 *492:87 *1876:A1 12.7464 
12 *492:79 *1868:A2 9.72857 
13 *492:71 *1877:B 17.2643 
14 *492:60 *1870:A2 11.4964 
*END

*D_NET *493 0.000760186
*CONN
*I *1869:B1 I *D sky130_fd_sc_hd__a21oi_2
*I *1868:Y O *D sky130_fd_sc_hd__o21ai_2
*CAP
1 *1869:B1 0.00012123
2 *1868:Y 0.00012123
3 *1869:B1 *1869:A1 0.000227971
4 *1869:B1 *1873:A 0.000226279
5 *1869:B1 *496:54 6.34751e-05
*RES
1 *1868:Y *1869:B1 31.4214 
*END

*D_NET *494 0.00348157
*CONN
*I *1872:B I *D sky130_fd_sc_hd__nor3_2
*I *1870:Y O *D sky130_fd_sc_hd__a21oi_2
*CAP
1 *1872:B 0.00123862
2 *1870:Y 0.00123862
3 *1872:B *1870:B1 0.000149193
4 *1872:B *1872:A 1.93525e-05
5 *1872:B *1872:C 5.49489e-05
6 *1872:B *1880:D 8.00984e-06
7 *1872:B *2267:A 0.000182179
8 *1872:B *2292:A 1.84865e-05
9 *1872:B *495:26 0.000257304
10 *1872:B *535:86 0.00013331
11 *1872:B *559:16 7.58841e-05
12 *1869:A2 *1872:B 4.97967e-05
13 *1880:B *1872:B 5.13995e-05
14 *1882:A *1872:B 4.46231e-06
*RES
1 *1870:Y *1872:B 46.1536 
*END

*D_NET *495 0.00443048
*CONN
*I *1875:A2 I *D sky130_fd_sc_hd__o211a_2
*I *1872:C I *D sky130_fd_sc_hd__nor3_2
*I *1871:X O *D sky130_fd_sc_hd__and3_2
*CAP
1 *1875:A2 0.000391807
2 *1872:C 1.04057e-05
3 *1871:X 0.000726488
4 *495:26 0.0011287
5 *1872:C *1872:A 2.37306e-05
6 *1875:A2 *1875:A1 5.37741e-06
7 *1875:A2 *543:37 0
8 *1875:A2 *679:112 0
9 *495:26 *1609:A 4.00679e-05
10 *495:26 *1863:A1 5.52302e-05
11 *495:26 *1872:A 0.000358807
12 *495:26 *2292:A 5.50052e-05
13 *495:26 *500:10 0.00047567
14 *495:26 *535:86 4.75008e-05
15 *495:26 *543:10 9.90367e-05
16 *495:26 *679:89 5.31986e-05
17 *1863:A2 *495:26 0.000113306
18 *1872:B *1872:C 5.49489e-05
19 *1872:B *495:26 0.000257304
20 *1880:A *495:26 0
21 *1882:A *495:26 0.000184745
22 *2023:D *495:26 1.57414e-05
23 *2026:D *1875:A2 0.000333413
24 *482:34 *495:26 0
*RES
1 *1871:X *495:26 36.2286 
2 *495:26 *1872:C 9.83571 
3 *495:26 *1875:A2 26.3714 
*END

*D_NET *496 0.00840888
*CONN
*I *1877:C I *D sky130_fd_sc_hd__and3_2
*I *1880:C I *D sky130_fd_sc_hd__nand4_2
*I *1882:C I *D sky130_fd_sc_hd__and4_2
*I *1876:A2 I *D sky130_fd_sc_hd__a21oi_2
*I *1874:B I *D sky130_fd_sc_hd__nand2_2
*I *1873:X O *D sky130_fd_sc_hd__and3_2
*CAP
1 *1877:C 0
2 *1880:C 0
3 *1882:C 0.000125106
4 *1876:A2 7.97971e-05
5 *1874:B 0.000725236
6 *1873:X 0.000698092
7 *496:54 0.000674119
8 *496:26 0.000987258
9 *496:24 0.00114603
10 *496:22 0.00111289
11 *1874:B *1875:B1 4.45768e-06
12 *1874:B *2028:CLK 0.000643687
13 *1874:B *543:37 2.12087e-05
14 *1876:A2 *1888:A 6.22011e-05
15 *1876:A2 *1899:A1 5.80706e-06
16 *1882:C *1880:D 0.000250876
17 *1882:C *500:10 1.02504e-05
18 *1882:C *535:86 4.4198e-05
19 *496:22 *1877:A 2.14658e-05
20 *496:22 *1881:A 1.92789e-05
21 *496:22 *1881:B 7.6644e-05
22 *496:22 *1883:B1 0.000184745
23 *496:22 *1885:A2 4.08637e-05
24 *496:22 *1891:C 0
25 *496:22 *2200:A 5.43587e-05
26 *496:22 *504:19 0
27 *496:22 *703:10 1.17968e-05
28 *496:24 *1877:A 2.89114e-05
29 *496:24 *703:6 5.12829e-05
30 *496:54 *1869:A1 0
31 *496:54 *1878:B 3.90513e-05
32 *496:54 *1880:D 1.00887e-05
33 *496:54 *577:10 0
34 *496:54 *702:12 0
35 *1869:B1 *496:54 6.34751e-05
36 *1877:B *496:22 0.000272665
37 *1880:B *1882:C 2.02389e-05
38 *2012:RESET_B *496:22 7.6644e-05
39 *2025:D *496:54 0.000155329
40 *2028:D *1874:B 9.82585e-06
41 *2028:D *496:26 8.56654e-05
42 *2028:D *496:54 0.000198698
43 *2029:D *496:22 0.000128161
44 *169:18 *496:54 0.000102847
45 *169:26 *496:54 4.29471e-05
46 *492:71 *496:22 0.000122682
47 *492:87 *1876:A2 0
*RES
1 *1873:X *496:22 39.7286 
2 *496:22 *496:24 5.05357 
3 *496:24 *496:26 2.17857 
4 *496:26 *1874:B 19.6036 
5 *496:26 *1876:A2 19.9429 
6 *496:24 *496:54 15.6071 
7 *496:54 *1882:C 17.2643 
8 *496:54 *1880:C 13.8 
9 *496:22 *1877:C 9.3 
*END

*D_NET *497 0.00150278
*CONN
*I *1875:B1 I *D sky130_fd_sc_hd__o211a_2
*I *1874:Y O *D sky130_fd_sc_hd__nand2_2
*CAP
1 *1875:B1 0.000552315
2 *1874:Y 0.000552315
3 *1875:B1 *2028:CLK 3.4993e-05
4 *1875:B1 *2298:A 1.28239e-05
5 *1875:B1 *543:37 1.78211e-05
6 *1875:B1 *679:112 0
7 *1875:B1 *686:27 0
8 *1874:B *1875:B1 4.45768e-06
9 *1875:C1 *1875:B1 1.8461e-05
10 *2027:D *1875:B1 0.000309598
11 *492:87 *1875:B1 0
*RES
1 *1874:Y *1875:B1 36.1536 
*END

*D_NET *498 0.000962613
*CONN
*I *1878:B I *D sky130_fd_sc_hd__nor3_2
*I *1876:Y O *D sky130_fd_sc_hd__a21oi_2
*CAP
1 *1878:B 0.000165745
2 *1876:Y 0.000165745
3 *1878:B *1888:A 0.000338359
4 *2025:D *1878:B 5.33005e-05
5 *2028:D *1878:B 0.000200413
6 *496:54 *1878:B 3.90513e-05
*RES
1 *1876:Y *1878:B 32.5107 
*END

*D_NET *499 0.00137812
*CONN
*I *1883:A2 I *D sky130_fd_sc_hd__o211a_2
*I *1878:C I *D sky130_fd_sc_hd__nor3_2
*I *1877:X O *D sky130_fd_sc_hd__and3_2
*CAP
1 *1883:A2 5.83672e-05
2 *1878:C 8.97565e-05
3 *1877:X 0.000220875
4 *499:12 0.000368999
5 *1878:C *2267:A 4.10843e-05
6 *1883:A2 *2267:A 9.24299e-05
7 *499:12 *2267:A 5.03772e-05
8 *499:12 *703:10 0.000153054
9 *499:12 *704:10 2.89016e-05
10 *2025:D *1883:A2 0.000175512
11 *2025:D *499:12 0
12 *2028:D *1878:C 9.87672e-05
*RES
1 *1877:X *499:12 22.8357 
2 *499:12 *1878:C 11.0679 
3 *499:12 *1883:A2 20.55 
*END

*D_NET *500 0.00219027
*CONN
*I *1880:D I *D sky130_fd_sc_hd__nand4_2
*I *1882:D I *D sky130_fd_sc_hd__and4_2
*I *1879:X O *D sky130_fd_sc_hd__and2_2
*CAP
1 *1880:D 0.000115176
2 *1882:D 0
3 *1879:X 0.000384812
4 *500:10 0.000499988
5 *1880:D *2299:A 5.50052e-05
6 *1880:D *686:37 5.33005e-05
7 *500:10 *535:86 2.15363e-05
8 *1872:B *1880:D 8.00984e-06
9 *1880:B *1880:D 0.000193918
10 *1882:C *1880:D 0.000250876
11 *1882:C *500:10 1.02504e-05
12 *491:23 *1880:D 3.32723e-05
13 *491:23 *500:10 7.83659e-05
14 *495:26 *500:10 0.00047567
15 *496:54 *1880:D 1.00887e-05
*RES
1 *1879:X *500:10 19.4786 
2 *500:10 *1882:D 13.8 
3 *500:10 *1880:D 17.8 
*END

*D_NET *501 0.00374672
*CONN
*I *1887:B1 I *D sky130_fd_sc_hd__a2111oi_2
*I *1881:B I *D sky130_fd_sc_hd__or2_2
*I *1880:Y O *D sky130_fd_sc_hd__nand4_2
*CAP
1 *1887:B1 0.000270762
2 *1881:B 0.000207711
3 *1880:Y 0.000715338
4 *501:14 0.00119381
5 *1881:B *1608:A 5.80706e-06
6 *1881:B *1881:A 0.000459527
7 *1881:B *506:10 0
8 *1887:B1 *2030:CLK 2.81855e-05
9 *1887:B1 *2146:A 5.63843e-05
10 *1887:B1 *506:10 3.70794e-05
11 *1887:B1 *545:49 2.31395e-05
12 *501:14 *2030:CLK 2.51343e-06
13 *501:14 *686:37 0.000396124
14 *1771:A *1887:B1 2.30099e-05
15 *1884:B *501:14 0.000137639
16 *1887:C1 *1881:B 3.02892e-05
17 *2012:RESET_B *1881:B 2.93754e-05
18 *2030:D *501:14 5.338e-05
19 *496:22 *1881:B 7.6644e-05
*RES
1 *1880:Y *501:14 19.5679 
2 *501:14 *1881:B 24.1929 
3 *501:14 *1887:B1 13.5857 
*END

*D_NET *502 0.00290397
*CONN
*I *1885:A2 I *D sky130_fd_sc_hd__a21o_2
*I *1883:B1 I *D sky130_fd_sc_hd__o211a_2
*I *1881:X O *D sky130_fd_sc_hd__or2_2
*CAP
1 *1885:A2 0.000236327
2 *1883:B1 0.000212347
3 *1881:X 0
4 *502:4 0.000448674
5 *1883:B1 *1883:A1 8.86298e-05
6 *1883:B1 *2208:A 0.000223558
7 *1883:B1 *2298:A 0.000363159
8 *1885:A2 *1873:B 0.000452544
9 *1885:A2 *1881:A 4.26249e-05
10 *1885:A2 *504:19 0.000537117
11 *2029:D *1883:B1 1.02936e-05
12 *492:60 *1885:A2 1.52801e-06
13 *492:79 *1883:B1 6.15625e-05
14 *496:22 *1883:B1 0.000184745
15 *496:22 *1885:A2 4.08637e-05
*RES
1 *1881:X *502:4 9.3 
2 *502:4 *1883:B1 15.9071 
3 *502:4 *1885:A2 25.9429 
*END

*D_NET *503 0.00040639
*CONN
*I *1884:C I *D sky130_fd_sc_hd__and3_2
*I *1882:X O *D sky130_fd_sc_hd__and4_2
*CAP
1 *1884:C 0.000123562
2 *1882:X 0.000123562
3 *1884:C *1609:A 8.46829e-05
4 *1884:C *535:86 1.74352e-05
5 *1884:C *559:16 5.71472e-05
*RES
1 *1882:X *1884:C 20.3679 
*END

*D_NET *504 0.00288864
*CONN
*I *1891:C I *D sky130_fd_sc_hd__and3_2
*I *1889:A2 I *D sky130_fd_sc_hd__o21a_2
*I *1885:B1 I *D sky130_fd_sc_hd__a21o_2
*I *1884:X O *D sky130_fd_sc_hd__and3_2
*CAP
1 *1891:C 9.97883e-05
2 *1889:A2 2.61224e-05
3 *1885:B1 0
4 *1884:X 6.09527e-05
5 *504:19 0.000693806
6 *504:6 0.000628848
7 *1889:A2 *1889:A1 2.89016e-05
8 *1891:C *1889:A1 2.56694e-05
9 *1891:C *2200:A 0
10 *1891:C *560:19 0
11 *504:6 *1609:A 5.33005e-05
12 *504:6 *535:76 9.35307e-05
13 *504:19 *1608:A 0
14 *504:19 *1870:A1 1.03904e-05
15 *504:19 *1881:A 1.53144e-05
16 *504:19 *535:76 4.84159e-05
17 *504:19 *560:19 0
18 *1885:A2 *504:19 0.000537117
19 *2029:D *504:19 4.35141e-05
20 *447:12 *504:6 8.70166e-05
21 *447:12 *504:19 8.34321e-05
22 *492:60 *504:19 0.000352522
23 *492:71 *504:19 0
24 *496:22 *1891:C 0
25 *496:22 *504:19 0
*RES
1 *1884:X *504:6 11.0679 
2 *504:6 *1885:B1 9.3 
3 *504:6 *504:19 18.1429 
4 *504:19 *1889:A2 14.3357 
5 *504:19 *1891:C 15.4429 
*END

*D_NET *505 0.00250334
*CONN
*I *1886:B I *D sky130_fd_sc_hd__nor2_2
*I *1885:X O *D sky130_fd_sc_hd__a21o_2
*CAP
1 *1886:B 0.000535796
2 *1885:X 0.000535796
3 *1886:B *1609:A 0.000190397
4 *1886:B *1857:A1 0.000181796
5 *1886:B *1978:A 4.72917e-05
6 *1886:B *679:79 6.05161e-06
7 *1857:A2 *1886:B 1.55885e-05
8 *2030:D *1886:B 0.000921366
9 *447:18 *1886:B 5.84171e-05
10 *492:43 *1886:B 1.08359e-05
*RES
1 *1885:X *1886:B 41.2786 
*END

*D_NET *506 0.00204777
*CONN
*I *1888:B I *D sky130_fd_sc_hd__nor2_2
*I *2264:A I *D sky130_fd_sc_hd__buf_1
*I *1887:Y O *D sky130_fd_sc_hd__a2111oi_2
*CAP
1 *1888:B 0.000327407
2 *2264:A 0
3 *1887:Y 0.000332828
4 *506:10 0.000660235
5 *1888:B *1608:A 2.28159e-05
6 *1888:B *1888:A 5.46298e-05
7 *1888:B *1889:B1 3.57163e-05
8 *1888:B *2029:CLK 0
9 *1888:B *2193:A 1.33343e-05
10 *1888:B *672:10 0.000138099
11 *506:10 *1608:A 6.80593e-05
12 *506:10 *2029:CLK 0
13 *506:10 *545:49 2.85321e-05
14 *506:10 *545:86 0
15 *1881:B *506:10 0
16 *1887:A2 *506:10 0
17 *1887:B1 *506:10 3.70794e-05
18 *1887:C1 *506:10 3.67279e-06
19 *1887:D1 *506:10 0.00031411
20 *2012:RESET_B *506:10 1.12484e-05
*RES
1 *1887:Y *506:10 21.7464 
2 *506:10 *2264:A 13.8 
3 *506:10 *1888:B 20.8 
*END

*D_NET *507 0.00114704
*CONN
*I *1889:B1 I *D sky130_fd_sc_hd__o21a_2
*I *1888:Y O *D sky130_fd_sc_hd__nor2_2
*CAP
1 *1889:B1 0.000298926
2 *1888:Y 0.000298926
3 *1889:B1 *1889:A1 0.000114661
4 *1888:B *1889:B1 3.57163e-05
5 *2031:D *1889:B1 0.000398815
*RES
1 *1888:Y *1889:B1 34.0107 
*END

*D_NET *508 0.00123352
*CONN
*I *1892:B I *D sky130_fd_sc_hd__nor3_2
*I *1890:Y O *D sky130_fd_sc_hd__nor2_2
*CAP
1 *1892:B 0.000507888
2 *1890:Y 0.000507888
3 *1892:B *1892:A 0
4 *1892:B *1896:A 3.57163e-05
5 *1892:B *2033:CLK 7.16452e-05
6 *1892:B *2268:A 3.34295e-05
7 *1892:B *509:21 0
8 *1892:B *561:37 4.33438e-05
9 *2032:D *1892:B 3.0285e-05
10 *2033:D *1892:B 3.32132e-06
*RES
1 *1890:Y *1892:B 34.6893 
*END

*D_NET *509 0.00355903
*CONN
*I *1895:A2 I *D sky130_fd_sc_hd__a21oi_2
*I *1894:A2 I *D sky130_fd_sc_hd__o21ba_2
*I *1892:C I *D sky130_fd_sc_hd__nor3_2
*I *1891:X O *D sky130_fd_sc_hd__and3_2
*CAP
1 *1895:A2 0.000656053
2 *1894:A2 1.40568e-05
3 *1892:C 4.31276e-05
4 *1891:X 0.000126369
5 *509:21 0.00100326
6 *509:10 0.000502652
7 *1892:C *2268:A 9.71197e-05
8 *1894:A2 *1893:A1 5.52238e-05
9 *1894:A2 *2271:A 2.89016e-05
10 *1895:A2 *1895:A1 0.000140933
11 *1895:A2 *1896:A 5.66157e-05
12 *1895:A2 *1897:B 5.33005e-05
13 *1895:A2 *1905:A2 5.52238e-05
14 *1895:A2 *2034:CLK 8.70594e-05
15 *1895:A2 *563:12 3.06406e-05
16 *1895:A2 *682:42 6.25491e-05
17 *509:10 *1888:A 3.18676e-05
18 *509:10 *561:37 7.92879e-05
19 *509:21 *1896:A 0.00034321
20 *509:21 *2158:A 0
21 *509:21 *561:37 5.86416e-05
22 *509:21 *562:10 0
23 *509:21 *562:40 0
24 *1892:B *509:21 0
25 *2034:D *1895:A2 3.29354e-05
*RES
1 *1891:X *509:10 16.2821 
2 *509:10 *1892:C 14.7464 
3 *509:10 *509:21 7.10714 
4 *509:21 *1894:A2 14.3357 
5 *509:21 *1895:A2 24.5321 
*END

*D_NET *510 0.000764612
*CONN
*I *1894:B1_N I *D sky130_fd_sc_hd__o21ba_2
*I *1893:X O *D sky130_fd_sc_hd__a31o_2
*CAP
1 *1894:B1_N 0.000184972
2 *1893:X 0.000184972
3 *1894:B1_N *1893:A1 0.00014636
4 *1894:B1_N *1893:A3 0.000142856
5 *1894:B1_N *563:12 7.43578e-06
6 *1828:B *1894:B1_N 9.80173e-05
*RES
1 *1893:X *1894:B1_N 23.2429 
*END

*D_NET *511 0.000496735
*CONN
*I *1897:B I *D sky130_fd_sc_hd__nor3_2
*I *1895:Y O *D sky130_fd_sc_hd__a21oi_2
*CAP
1 *1897:B 9.11097e-05
2 *1895:Y 9.11097e-05
3 *1897:B *1895:A1 0.000150625
4 *1897:B *2256:A 4.1331e-06
5 *1897:B *512:38 1.99099e-05
6 *1897:B *512:51 8.06427e-05
7 *1897:B *682:44 5.90443e-06
8 *1895:A2 *1897:B 5.33005e-05
*RES
1 *1895:Y *1897:B 30.3857 
*END

*D_NET *512 0.00501539
*CONN
*I *1900:A2 I *D sky130_fd_sc_hd__a21oi_2
*I *1903:D I *D sky130_fd_sc_hd__and4_2
*I *1901:C I *D sky130_fd_sc_hd__and3_2
*I *1897:C I *D sky130_fd_sc_hd__nor3_2
*I *1898:A2 I *D sky130_fd_sc_hd__a21oi_2
*I *1899:A2 I *D sky130_fd_sc_hd__o21a_2
*I *1896:X O *D sky130_fd_sc_hd__and4_2
*CAP
1 *1900:A2 0
2 *1903:D 0
3 *1901:C 0.000261039
4 *1897:C 0
5 *1898:A2 7.96256e-05
6 *1899:A2 9.07699e-05
7 *1896:X 3.54456e-05
8 *512:51 0.000700172
9 *512:38 0.0007055
10 *512:14 0.000337784
11 *512:8 0.000515103
12 *512:6 0.000116793
13 *1898:A2 *1898:A1 9.90367e-05
14 *1898:A2 *1899:B1 5.33005e-05
15 *1898:A2 *2268:A 4.13595e-05
16 *1899:A2 *1898:B1 4.46186e-06
17 *1899:A2 *1899:A1 5.33978e-05
18 *1899:A2 *1899:B1 0.000128154
19 *1901:C *1903:A 9.83442e-05
20 *1901:C *1903:B 6.86019e-05
21 *1901:C *1903:C 1.59373e-05
22 *1901:C *1905:A2 9.35114e-06
23 *1901:C *569:31 2.59355e-05
24 *512:6 *2270:A 8.69268e-05
25 *512:8 *2270:A 9.90878e-05
26 *512:14 *1898:B1 0.000105262
27 *512:14 *1900:B1 0.000183726
28 *512:14 *1902:B 0.000227539
29 *512:14 *2270:A 4.88637e-05
30 *512:38 *1898:B1 0
31 *512:38 *2256:A 0
32 *512:38 *562:40 0
33 *512:38 *564:8 6.75007e-05
34 *512:38 *683:46 0
35 *512:51 *1895:A1 1.41652e-05
36 *512:51 *1905:A2 0.000108194
37 *512:51 *2034:CLK 0.000394944
38 *512:51 *683:46 0
39 *1876:A1 *1899:A2 5.71472e-05
40 *1897:B *512:38 1.99099e-05
41 *1897:B *512:51 8.06427e-05
42 *2035:D *1899:A2 7.79781e-06
43 *2035:D *512:14 7.35679e-05
*RES
1 *1896:X *512:6 10.2464 
2 *512:6 *512:8 1.76786 
3 *512:8 *512:14 9.94643 
4 *512:14 *1899:A2 16.2821 
5 *512:14 *1898:A2 15.5679 
6 *512:8 *512:38 9.48214 
7 *512:38 *1897:C 13.8 
8 *512:38 *512:51 11.8929 
9 *512:51 *1901:C 12.7107 
10 *512:51 *1903:D 9.3 
11 *512:6 *1900:A2 9.3 
*END

*D_NET *513 0.000507813
*CONN
*I *1899:B1 I *D sky130_fd_sc_hd__o21a_2
*I *1898:Y O *D sky130_fd_sc_hd__a21oi_2
*CAP
1 *1899:B1 0.000111371
2 *1898:Y 0.000111371
3 *1899:B1 *1898:A1 2.28598e-05
4 *1899:B1 *1899:A1 1.00375e-05
5 *1899:B1 *2025:CLK 1.50257e-05
6 *1898:A2 *1899:B1 5.33005e-05
7 *1899:A2 *1899:B1 0.000128154
8 *2035:D *1899:B1 5.56943e-05
*RES
1 *1898:Y *1899:B1 30.4929 
*END

*D_NET *514 0.00156749
*CONN
*I *1902:B I *D sky130_fd_sc_hd__nor3_2
*I *1900:Y O *D sky130_fd_sc_hd__a21oi_2
*CAP
1 *1902:B 0.000511677
2 *1900:Y 0.000511677
3 *1902:B *1900:B1 2.28499e-05
4 *1902:B *2025:CLK 3.66153e-05
5 *1902:B *2035:CLK 6.05161e-06
6 *1902:B *2199:A 4.79842e-05
7 *1902:B *2270:A 9.00347e-05
8 *1902:B *564:48 0.000113063
9 *512:14 *1902:B 0.000227539
*RES
1 *1900:Y *1902:B 37.8679 
*END

*D_NET *515 0.00292533
*CONN
*I *1905:A2 I *D sky130_fd_sc_hd__o21a_2
*I *1902:C I *D sky130_fd_sc_hd__nor3_2
*I *1901:X O *D sky130_fd_sc_hd__and3_2
*CAP
1 *1905:A2 0.000380591
2 *1902:C 0.000452098
3 *1901:X 0
4 *515:4 0.000832689
5 *1902:C *1902:A 6.56312e-06
6 *1902:C *2199:A 4.38243e-05
7 *1902:C *2271:A 0
8 *1902:C *564:48 8.88831e-05
9 *1902:C *569:27 9.91086e-05
10 *1905:A2 *1903:C 0.000228514
11 *1905:A2 *1905:A1 1.00887e-05
12 *1905:A2 *1905:B1 2.72055e-05
13 *1905:A2 *2034:CLK 2.77173e-05
14 *1905:A2 *2271:A 0.000226867
15 *1905:A2 *516:14 0.000199372
16 *1905:A2 *683:46 0
17 *1895:A2 *1905:A2 5.52238e-05
18 *1901:C *1905:A2 9.35114e-06
19 *2036:D *1902:C 0.000129044
20 *512:51 *1905:A2 0.000108194
*RES
1 *1901:X *515:4 9.3 
2 *515:4 *1902:C 30.491 
3 *515:4 *1905:A2 27.4429 
*END

*D_NET *516 0.00745036
*CONN
*I *1904:B I *D sky130_fd_sc_hd__nor2_2
*I *1908:A2 I *D sky130_fd_sc_hd__a21oi_2
*I *1907:A2 I *D sky130_fd_sc_hd__o21a_2
*I *1906:A2 I *D sky130_fd_sc_hd__a21oi_2
*I *1909:C I *D sky130_fd_sc_hd__and3_2
*I *1911:D I *D sky130_fd_sc_hd__and4_2
*I *1903:X O *D sky130_fd_sc_hd__and4_2
*CAP
1 *1904:B 0
2 *1908:A2 7.07649e-05
3 *1907:A2 0.000196369
4 *1906:A2 0.000207423
5 *1909:C 0
6 *1911:D 0
7 *1903:X 0.000229011
8 *516:42 0.000878877
9 *516:36 0.000703396
10 *516:27 0.000301622
11 *516:18 0.000329401
12 *516:14 0.000414336
13 *1906:A2 *1906:A1 1.21258e-05
14 *1906:A2 *1906:B1 0.000139907
15 *1906:A2 *1907:A1 0.000294773
16 *1906:A2 *1907:B1 0.000152441
17 *1906:A2 *1913:A2 5.49544e-05
18 *1907:A2 *1907:A1 0.00041706
19 *1907:A2 *1907:B1 0.000195912
20 *1908:A2 *1908:A1 4.66511e-05
21 *1908:A2 *1913:A1 7.02611e-05
22 *1908:A2 *2279:A 0.000140933
23 *1908:A2 *521:31 4.02462e-05
24 *1908:A2 *670:14 6.55528e-06
25 *516:14 *1905:A1 9.15842e-06
26 *516:14 *2034:CLK 0.000227179
27 *516:18 *1911:C 1.02504e-05
28 *516:18 *591:10 0
29 *516:18 *683:46 5.54817e-06
30 *516:18 *683:57 0.000170607
31 *516:27 *1911:B 0
32 *516:27 *1911:C 6.81083e-05
33 *516:27 *521:8 0.00014789
34 *516:27 *591:10 0
35 *516:27 *591:25 0.00032246
36 *516:36 *1908:A1 0.000101545
37 *516:36 *521:8 0.000133715
38 *516:36 *521:31 6.07232e-05
39 *516:36 *591:25 4.56437e-05
40 *516:36 *591:42 7.57946e-05
41 *516:36 *591:53 0.000173797
42 *516:42 *1913:A1 0.000468166
43 *1905:A2 *516:14 0.000199372
44 *2037:D *516:14 0.000185403
45 *2041:D *516:42 0.000141981
*RES
1 *1903:X *516:14 24.4964 
2 *516:14 *516:18 8.875 
3 *516:18 *1911:D 13.8 
4 *516:18 *516:27 4.98214 
5 *516:27 *1909:C 13.8 
6 *516:27 *516:36 4.98214 
7 *516:36 *516:42 15.2857 
8 *516:42 *1906:A2 19.7643 
9 *516:42 *1907:A2 19.3893 
10 *516:36 *1908:A2 16.1929 
11 *516:14 *1904:B 9.3 
*END

*D_NET *517 0.000834021
*CONN
*I *1905:B1 I *D sky130_fd_sc_hd__o21a_2
*I *1904:Y O *D sky130_fd_sc_hd__nor2_2
*CAP
1 *1905:B1 0.000246836
2 *1904:Y 0.000246836
3 *1905:B1 *1895:B1 2.53112e-06
4 *1905:A2 *1905:B1 2.72055e-05
5 *2037:D *1905:B1 0.000310612
*RES
1 *1904:Y *1905:B1 31.3321 
*END

*D_NET *518 0.0017959
*CONN
*I *1907:B1 I *D sky130_fd_sc_hd__o21a_2
*I *1906:Y O *D sky130_fd_sc_hd__a21oi_2
*CAP
1 *1907:B1 0.000368574
2 *1906:Y 0.000368574
3 *1907:B1 *1906:B1 7.97198e-05
4 *1907:B1 *1907:A1 2.99527e-05
5 *1907:B1 *1913:A2 0.00038571
6 *1907:B1 *1916:A1 0.000116971
7 *1906:A2 *1907:B1 0.000152441
8 *1907:A2 *1907:B1 0.000195912
9 *2038:D *1907:B1 9.80435e-05
*RES
1 *1906:Y *1907:B1 38.0464 
*END

*D_NET *519 0.00293441
*CONN
*I *1910:B I *D sky130_fd_sc_hd__nor3_2
*I *1908:Y O *D sky130_fd_sc_hd__a21oi_2
*CAP
1 *1910:B 0.000897888
2 *1908:Y 0.000897888
3 *1910:B *1910:C 0.000469394
4 *1910:B *1911:A 0
5 *1910:B *1913:A1 0.000139383
6 *1910:B *2273:A 0.000227021
7 *1910:B *2279:A 7.77287e-05
8 *1910:B *614:25 0
9 pcRegister[23] *1910:B 1.34809e-05
10 pcRegister[26] *1910:B 0.000211631
*RES
1 *1908:Y *1910:B 43.9393 
*END

*D_NET *520 0.00653109
*CONN
*I *1913:A2 I *D sky130_fd_sc_hd__o21a_2
*I *1910:C I *D sky130_fd_sc_hd__nor3_2
*I *1909:X O *D sky130_fd_sc_hd__and3_2
*CAP
1 *1913:A2 0.00118234
2 *1910:C 0.000826584
3 *1909:X 0
4 *520:4 0.00200892
5 *1910:C *1906:A1 7.02611e-05
6 *1910:C *1909:B 5.33005e-05
7 *1910:C *2276:A 6.07384e-05
8 *1910:C *602:25 1.55885e-05
9 *1910:C *614:8 3.03901e-05
10 *1913:A2 *1906:A1 0.000129236
11 *1913:A2 *1913:A1 0.000120114
12 *1913:A2 *1917:A2 5.50313e-05
13 *1913:A2 *625:16 0.000180777
14 *1913:A2 *625:77 0.000215348
15 pcRegister[23] *1910:C 0.000254189
16 *1906:A2 *1913:A2 5.49544e-05
17 *1907:B1 *1913:A2 0.00038571
18 *1910:B *1910:C 0.000469394
19 *2038:D *1913:A2 0.000387439
20 *2040:D *1910:C 3.0778e-05
*RES
1 *1909:X *520:4 9.3 
2 *520:4 *1910:C 33.925 
3 *520:4 *1913:A2 37.5143 
*END

*D_NET *521 0.00798319
*CONN
*I *1930:A1 I *D sky130_fd_sc_hd__a31o_2
*I *1929:B I *D sky130_fd_sc_hd__nand4_2
*I *2154:A I *D sky130_fd_sc_hd__clkdlybuf4s25_1
*I *1911:X O *D sky130_fd_sc_hd__and4_2
*CAP
1 *1930:A1 0.00121083
2 *1929:B 1.69531e-05
3 *2154:A 0.000111256
4 *1911:X 0.000224213
5 *521:31 0.00176239
6 *521:8 0.00087007
7 *1929:B *1929:A 5.33005e-05
8 *1929:B *527:8 5.33005e-05
9 *1930:A1 *1619:A 0.00074426
10 *1930:A1 *1916:A1 5.36422e-05
11 *1930:A1 *1925:A3 9.44702e-05
12 *1930:A1 *1928:A_N 5.50052e-05
13 *1930:A1 *1929:A 0.000471469
14 *1930:A1 *1930:B1 5.16542e-05
15 *1930:A1 *1931:B 4.66056e-05
16 *1930:A1 *549:55 0.000140288
17 *1930:A1 *670:87 0
18 *2154:A *1908:B1 6.05161e-06
19 *2154:A *2275:A 5.52238e-05
20 *521:8 *1911:B 0.000112106
21 *521:8 *1912:B 0
22 *521:8 *2206:A 0.000104315
23 *521:8 *602:21 4.75812e-05
24 *521:31 *1908:B1 0.000123295
25 *521:31 *1912:B 0
26 *521:31 *1916:A1 5.40293e-05
27 *521:31 *1919:B1 2.22999e-05
28 *521:31 *1931:B 1.00887e-05
29 *521:31 *2279:A 9.10577e-05
30 *521:31 *2280:A 0.000134885
31 *521:31 *2282:A 0
32 *521:31 *527:8 0.000137983
33 *521:31 *547:65 2.24574e-05
34 *521:31 *625:39 0.00032653
35 *521:31 *636:36 0.000268403
36 *521:31 *647:12 0
37 red[2] *521:31 0.000113063
38 *1908:A2 *521:31 4.02462e-05
39 *2121:SET_B *1930:A1 1.15359e-05
40 *516:27 *521:8 0.00014789
41 *516:36 *521:8 0.000133715
42 *516:36 *521:31 6.07232e-05
*RES
1 *1911:X *521:8 20.6036 
2 *521:8 *2154:A 15.5679 
3 *521:8 *521:31 23.0357 
4 *521:31 *1929:B 14.3357 
5 *521:31 *1930:A1 41.4964 
*END

*D_NET *522 0.00364254
*CONN
*I *1913:B1 I *D sky130_fd_sc_hd__o21a_2
*I *1912:Y O *D sky130_fd_sc_hd__nor2_2
*CAP
1 *1913:B1 0
2 *1912:Y 0.0012612
3 *522:16 0.0012612
4 *522:16 *1802:B 0.000172466
5 *522:16 *1803:A2 0.00020042
6 *522:16 *1907:A1 1.72894e-05
7 *522:16 *2105:CLK 7.15846e-05
8 *522:16 *2106:CLK 0.000175158
9 *522:16 *2192:A 2.09826e-05
10 *522:16 *2234:A 2.28598e-05
11 *522:16 *535:313 8.1654e-05
12 *522:16 *591:14 6.05161e-06
13 *522:16 *685:51 1.69115e-05
14 *522:16 *740:25 1.09232e-05
15 *522:16 *740:44 3.07294e-05
16 *2040:D *522:16 0.000164937
17 *2106:D *522:16 0.000128161
18 *2220:A *522:16 0
*RES
1 *1912:Y *522:16 40.925 
2 *522:16 *1913:B1 9.3 
*END

*D_NET *523 0.00225675
*CONN
*I *1915:B1 I *D sky130_fd_sc_hd__o21a_2
*I *1914:Y O *D sky130_fd_sc_hd__a21oi_2
*CAP
1 *1915:B1 0.000347323
2 *1914:Y 0.000347323
3 *1915:B1 *1907:A1 0
4 *1915:B1 *1915:A2 0.000254128
5 *1915:B1 *528:20 0.0001399
6 *1915:B1 *625:16 0.000138569
7 *1915:B1 *625:20 0.000349721
8 *1915:B1 *670:36 0.0005201
9 *2041:D *1915:B1 0.000159687
*RES
1 *1914:Y *1915:B1 39.4571 
*END

*D_NET *524 0.00205264
*CONN
*I *1918:A I *D sky130_fd_sc_hd__nor2_2
*I *1916:Y O *D sky130_fd_sc_hd__a21oi_2
*CAP
1 *1918:A 0.000355839
2 *1916:Y 0.000355839
3 *1918:A *1916:A1 5.33005e-05
4 *1918:A *1916:A2 3.90788e-05
5 *1918:A *1918:B 1.02504e-05
6 *1918:A *1919:A2 8.07792e-06
7 *1918:A *1919:B1 0.000117151
8 *1918:A *1931:C 2.11419e-05
9 *1918:A *2285:A 5.02723e-05
10 *1918:A *547:52 3.51442e-05
11 *1918:A *547:65 0.000466094
12 *1918:A *547:71 0.000110997
13 *1918:A *625:39 8.57859e-05
14 *278:22 *1918:A 0.000343662
*RES
1 *1916:Y *1918:A 38.1179 
*END

*D_NET *525 0.00304029
*CONN
*I *1918:B I *D sky130_fd_sc_hd__nor2_2
*I *1917:X O *D sky130_fd_sc_hd__a31o_2
*CAP
1 *1918:B 0.000830049
2 *1917:X 0.000830049
3 *1918:B *1914:B1 0.000701214
4 *1918:B *1921:B 5.7836e-06
5 *1918:B *547:52 1.82896e-05
6 *1918:B *625:39 7.84294e-05
7 *1918:B *670:70 2.06112e-05
8 *1918:B *688:68 0.000367895
9 red[2] *1918:B 6.74439e-05
10 red[4] *1918:B 0
11 *1918:A *1918:B 1.02504e-05
12 *2042:D *1918:B 0.000110272
*RES
1 *1917:X *1918:B 38.7157 
*END

*D_NET *526 0.00346571
*CONN
*I *1922:B I *D sky130_fd_sc_hd__and3_2
*I *1919:X O *D sky130_fd_sc_hd__a31o_2
*CAP
1 *1922:B 0.00102597
2 *1919:X 0.00102597
3 *1922:B *1607:A 6.94403e-05
4 *1922:B *1919:B1 0.00031306
5 *1922:B *1922:C 3.23192e-05
6 *1922:B *1926:A 0.00031571
7 *1922:B *2184:A 0.000185118
8 *1922:B *2246:A 5.49489e-05
9 *1922:B *2288:A 0.00028904
10 *1922:B *670:115 6.33589e-05
11 Hsync *1922:B 5.78525e-05
12 *2043:D *1922:B 3.2923e-05
*RES
1 *1919:X *1922:B 47.1893 
*END

*D_NET *527 0.00741328
*CONN
*I *1921:B I *D sky130_fd_sc_hd__nand2_2
*I *1927:A2 I *D sky130_fd_sc_hd__a31o_2
*I *1930:A2 I *D sky130_fd_sc_hd__a31o_2
*I *1925:A3 I *D sky130_fd_sc_hd__a31o_2
*I *1923:A3 I *D sky130_fd_sc_hd__a31o_2
*I *1929:C I *D sky130_fd_sc_hd__nand4_2
*I *1920:X O *D sky130_fd_sc_hd__and3_2
*CAP
1 *1921:B 0.000419127
2 *1927:A2 7.35864e-05
3 *1930:A2 0
4 *1925:A3 0.000507418
5 *1923:A3 0
6 *1929:C 1.51421e-05
7 *1920:X 0.000115112
8 *527:38 0.000823607
9 *527:30 0.00050487
10 *527:23 0.000412597
11 *527:17 0.000885374
12 *527:8 0.000298999
13 *1921:B *1619:A 8.72571e-05
14 *1921:B *2250:A 0.00010096
15 *1921:B *670:70 0
16 *1921:B *688:87 0
17 *1925:A3 *1925:A1 5.65955e-05
18 *1925:A3 *1925:B1 4.2855e-05
19 *1925:A3 *2121:D 7.65336e-06
20 *1925:A3 *549:55 0.00015806
21 *1925:A3 *549:68 0.000139816
22 *1927:A2 *670:87 1.00887e-05
23 *1927:A2 *670:100 7.74068e-05
24 *527:8 *1929:A 0.000123313
25 *527:8 *636:34 6.05161e-06
26 *527:8 *636:36 9.02232e-05
27 *527:17 *1619:A 0.000130443
28 *527:17 *1929:A 0.000123861
29 *527:17 *636:34 8.40933e-05
30 *527:23 *1924:B1 0.000140403
31 *527:23 *1926:A 0.00016227
32 *527:23 *2285:A 1.59405e-05
33 *527:23 *688:87 0.000345793
34 *527:30 *1923:A1 0.000181107
35 *527:30 *2288:A 0.000117881
36 *527:30 *670:100 0.000482707
37 *1650:B *1925:A3 0
38 *1918:B *1921:B 5.7836e-06
39 *1929:B *527:8 5.33005e-05
40 *1930:A1 *1925:A3 9.44702e-05
41 *2121:SET_B *1925:A3 0.000192666
42 *2121:SET_B *527:38 1.00887e-05
43 *2122:SET_B *527:30 4.54244e-05
44 *2122:SET_B *527:38 2.48703e-05
45 *278:22 *527:23 2.16573e-05
46 *323:18 *527:23 8.64228e-05
47 *521:31 *527:8 0.000137983
*RES
1 *1920:X *527:8 12.7286 
2 *527:8 *1929:C 9.72857 
3 *527:8 *527:17 3.82143 
4 *527:17 *527:23 16.1071 
5 *527:23 *1923:A3 9.3 
6 *527:23 *527:30 5.05357 
7 *527:30 *527:38 8.96429 
8 *527:38 *1925:A3 31.8714 
9 *527:38 *1930:A2 13.8 
10 *527:30 *1927:A2 19.6393 
11 *527:17 *1921:B 25.5679 
*END

*D_NET *528 0.0069004
*CONN
*I *1924:A2 I *D sky130_fd_sc_hd__a21oi_2
*I *1922:C I *D sky130_fd_sc_hd__and3_2
*I *1921:Y O *D sky130_fd_sc_hd__nand2_2
*CAP
1 *1924:A2 5.39313e-06
2 *1922:C 0.00152171
3 *1921:Y 0.000489366
4 *528:20 0.00201646
5 *1922:C *1919:A2 7.54104e-05
6 *1922:C *1925:B1 0.000106299
7 *1922:C *2184:A 0
8 *1924:A2 *1923:B1 2.11419e-05
9 *1924:A2 *1929:D 1.1594e-05
10 *528:20 *1907:A1 3.3301e-05
11 *528:20 *1916:B1 0.000305553
12 *528:20 *1917:A1 2.47833e-05
13 *528:20 *1923:B1 2.11419e-05
14 *528:20 *1929:D 0.000333095
15 *528:20 *625:16 0.000110738
16 *528:20 *636:20 9.94831e-05
17 *528:20 *636:34 0.000292849
18 *528:20 *670:36 7.06479e-05
19 *528:20 *670:51 0.000203496
20 pcRegister[31] *1922:C 3.48599e-06
21 red[1] *1922:C 0.000288824
22 *1915:B1 *528:20 0.0001399
23 *1922:A *1922:C 2.84026e-05
24 *1922:B *1922:C 3.23192e-05
25 *2043:D *1922:C 1.07719e-05
26 *2045:D *1922:C 0.00037167
27 *169:79 *528:20 0.000212878
28 *323:18 *528:20 6.96821e-05
*RES
1 *1921:Y *528:20 28.9518 
2 *528:20 *1922:C 25.6619 
3 *528:20 *1924:A2 14.0768 
*END

*D_NET *529 0.000644825
*CONN
*I *1924:B1 I *D sky130_fd_sc_hd__a21oi_2
*I *1923:X O *D sky130_fd_sc_hd__a31o_2
*CAP
1 *1924:B1 0.000139776
2 *1923:X 0.000139776
3 *1924:B1 *1923:A1 3.07351e-05
4 *1924:B1 *1926:A 3.11713e-05
5 *1924:B1 *2285:A 5.29529e-05
6 *1924:B1 *2288:A 5.50052e-05
7 *2122:SET_B *1924:B1 5.50052e-05
8 *527:23 *1924:B1 0.000140403
*RES
1 *1923:X *1924:B1 30.9929 
*END

*D_NET *530 0.00124846
*CONN
*I *1928:B I *D sky130_fd_sc_hd__and2b_2
*I *1925:X O *D sky130_fd_sc_hd__a31o_2
*CAP
1 *1928:B 0.000431257
2 *1925:X 0.000431257
3 *1928:B *1999:A 0
4 *1809:C *1928:B 4.93118e-06
5 *1811:B *1928:B 0
6 *2045:D *1928:B 5.41393e-05
7 *2110:D *1928:B 0.000228514
8 *2110:RESET_B *1928:B 9.83673e-05
*RES
1 *1925:X *1928:B 35.5821 
*END

*D_NET *531 0.00308901
*CONN
*I *1927:A3 I *D sky130_fd_sc_hd__a31o_2
*I *1930:A3 I *D sky130_fd_sc_hd__a31o_2
*I *1929:D I *D sky130_fd_sc_hd__nand4_2
*I *1926:X O *D sky130_fd_sc_hd__and2_2
*CAP
1 *1927:A3 0
2 *1930:A3 0.000205862
3 *1929:D 0.000389497
4 *1926:X 0
5 *531:19 0.000381904
6 *531:4 0.000565538
7 *1929:D *1916:A2 9.54798e-06
8 *1929:D *1916:B1 0.000344689
9 *1929:D *1919:A1 8.61547e-06
10 *1929:D *1923:B1 4.46433e-05
11 *1929:D *1926:A 4.37451e-05
12 *1929:D *1927:B1 5.9341e-05
13 *1929:D *2285:A 0.000347095
14 *1930:A3 *1927:B1 0
15 *1930:A3 *1928:A_N 8.48937e-05
16 *1930:A3 *1930:B1 9.84729e-05
17 *531:19 *1927:B1 4.86074e-05
18 *1924:A2 *1929:D 1.1594e-05
19 *278:22 *1929:D 0.000111873
20 *528:20 *1929:D 0.000333095
*RES
1 *1926:X *531:4 9.3 
2 *531:4 *1929:D 28.6393 
3 *531:4 *531:19 3 
4 *531:19 *1930:A3 13.4607 
5 *531:19 *1927:A3 9.3 
*END

*D_NET *532 0.00202842
*CONN
*I *1928:A_N I *D sky130_fd_sc_hd__and2b_2
*I *1927:X O *D sky130_fd_sc_hd__a31o_2
*CAP
1 *1928:A_N 0.000466435
2 *1927:X 0.000466435
3 *1928:A_N *1930:B1 5.66971e-05
4 *1928:A_N *2122:CLK 0.000121018
5 *1928:A_N *773:20 0.000210176
6 *1650:B *1928:A_N 5.49544e-05
7 *1930:A1 *1928:A_N 5.50052e-05
8 *1930:A3 *1928:A_N 8.48937e-05
9 *2110:RESET_B *1928:A_N 0.00014211
10 *2121:SET_B *1928:A_N 0.000357271
11 *361:12 *1928:A_N 1.34232e-05
*RES
1 *1927:X *1928:A_N 38.5286 
*END

*D_NET *533 0.00102224
*CONN
*I *1931:B I *D sky130_fd_sc_hd__and3_2
*I *1929:Y O *D sky130_fd_sc_hd__nand4_2
*CAP
1 *1931:B 0.000239909
2 *1929:Y 0.000239909
3 *1931:B *1916:A1 4.29155e-05
4 *1931:B *2046:CLK 7.29646e-05
5 *1931:B *547:65 0.000233118
6 *1930:A1 *1931:B 4.66056e-05
7 *169:79 *1931:B 0.000136727
8 *521:31 *1931:B 1.00887e-05
*RES
1 *1929:Y *1931:B 32.1179 
*END

*D_NET *534 0.00483711
*CONN
*I *1931:C I *D sky130_fd_sc_hd__and3_2
*I *1930:X O *D sky130_fd_sc_hd__a31o_2
*CAP
1 *1931:C 0.000639342
2 *1930:X 0.000639342
3 *1931:C *1650:A 0.000178176
4 *1931:C *1919:B1 2.23393e-05
5 *1931:C *1925:A2 0.00051222
6 *1931:C *1925:B1 0.0017467
7 *1931:C *2011:A 0.000990664
8 *1918:A *1931:C 2.11419e-05
9 *2121:SET_B *1931:C 8.71759e-05
*RES
1 *1930:X *1931:C 39.9562 
*END

*D_NET *535 0.0353584
*CONN
*I *2137:A I *D sky130_fd_sc_hd__clkbuf_8
*I *2135:A I *D sky130_fd_sc_hd__clkbuf_8
*I *2134:A I *D sky130_fd_sc_hd__clkbuf_8
*I *2136:A I *D sky130_fd_sc_hd__clkbuf_8
*I *2128:A I *D sky130_fd_sc_hd__clkbuf_8
*I *2130:A I *D sky130_fd_sc_hd__clkbuf_8
*I *2129:A I *D sky130_fd_sc_hd__clkbuf_8
*I *2127:A I *D sky130_fd_sc_hd__clkbuf_8
*I *2139:A I *D sky130_fd_sc_hd__clkbuf_8
*I *2126:A I *D sky130_fd_sc_hd__clkbuf_8
*I *2125:A I *D sky130_fd_sc_hd__clkbuf_8
*I *2138:A I *D sky130_fd_sc_hd__clkbuf_8
*I *2133:A I *D sky130_fd_sc_hd__clkbuf_8
*I *2124:A I *D sky130_fd_sc_hd__clkbuf_8
*I *2131:A I *D sky130_fd_sc_hd__clkbuf_8
*I *2132:A I *D sky130_fd_sc_hd__clkbuf_8
*I *2123:X O *D sky130_fd_sc_hd__clkbuf_16
*CAP
1 *2137:A 3.82418e-05
2 *2135:A 0
3 *2134:A 0
4 *2136:A 0
5 *2128:A 0
6 *2130:A 1.73943e-05
7 *2129:A 4.13386e-05
8 *2127:A 0
9 *2139:A 0
10 *2126:A 3.52309e-05
11 *2125:A 2.71222e-05
12 *2138:A 0
13 *2133:A 0
14 *2124:A 3.11879e-05
15 *2131:A 0.000106885
16 *2132:A 0
17 *2123:X 7.60367e-05
18 *535:351 0.00039456
19 *535:337 0.00037786
20 *535:331 0.000922425
21 *535:326 0.000232379
22 *535:317 0.000180987
23 *535:313 0.000601758
24 *535:296 0.000604018
25 *535:294 0.000215818
26 *535:290 0.00141691
27 *535:285 0.00148122
28 *535:276 0.000205462
29 *535:259 3.13032e-05
30 *535:245 0.000295978
31 *535:239 0.00216046
32 *535:233 0.00258749
33 *535:224 0.000717382
34 *535:215 0.000152895
35 *535:209 0.000522139
36 *535:190 0.000242237
37 *535:176 0.000251463
38 *535:174 0.00125715
39 *535:160 0.000481202
40 *535:154 0.00207258
41 *535:139 0.000765584
42 *535:137 9.4034e-05
43 *535:133 0.000391555
44 *535:106 0.000459088
45 *535:86 0.000494624
46 *535:76 0.00161395
47 *535:63 0.000879518
48 *535:61 0.00016069
49 *535:57 0.000136116
50 *535:43 0.000399212
51 *535:33 0.00161557
52 *535:15 0.00200249
53 *535:13 0.00112306
54 *535:6 0.000198349
55 *2124:A *2063:CLK 3.20982e-05
56 *2126:A *694:53 2.0591e-05
57 *2129:A *1678:A 0.000118351
58 *2129:A *1678:B 2.83425e-05
59 *2129:A *541:8 5.33005e-05
60 *2131:A *543:10 8.44747e-05
61 *535:6 *1623:A1 6.05161e-06
62 *535:6 *727:40 7.48091e-05
63 *535:6 *734:44 8.97655e-08
64 *535:13 *734:44 3.39146e-05
65 *535:15 *1621:A1 0
66 *535:15 *1722:A1 3.25071e-05
67 *535:15 *727:40 0
68 *535:15 *731:124 0.000212904
69 *535:15 *734:8 0.000110536
70 *535:15 *734:44 2.1527e-05
71 *535:33 *681:36 0.000392755
72 *535:33 *681:50 1.89507e-06
73 *535:33 *731:124 4.24536e-05
74 *535:33 *735:63 2.57655e-05
75 *535:43 *2141:A 4.93875e-05
76 *535:57 *545:8 6.38991e-05
77 *535:61 *545:8 8.62583e-05
78 *535:63 *545:8 7.2156e-05
79 *535:76 *1609:A 6.43063e-05
80 *535:76 *545:8 1.5129e-06
81 *535:86 *1609:A 2.85234e-05
82 *535:86 *1863:A1 1.55485e-05
83 *535:86 *543:10 0.00011043
84 *535:86 *559:16 2.85321e-05
85 *535:106 *1879:A 8.56034e-05
86 *535:106 *559:16 2.28776e-05
87 *535:106 *667:55 0.000142336
88 *535:154 *690:75 0
89 *535:176 *1741:A1 0.00021209
90 *535:176 *2095:CLK 4.16234e-05
91 *535:190 *1741:A1 3.80798e-05
92 *535:190 *2095:CLK 6.92694e-06
93 *535:190 *2174:A 6.13812e-05
94 *535:190 *538:10 3.61917e-05
95 *535:190 *538:12 6.35524e-05
96 *535:209 *711:10 0
97 *535:233 *1821:A 0
98 *535:233 *1823:B 0
99 *535:233 *2117:CLK 0
100 *535:233 *696:38 0.000107875
101 *535:233 *742:23 0
102 *535:245 *1678:C 5.94447e-06
103 *535:245 *2072:CLK 8.04432e-05
104 *535:245 *541:10 1.6815e-05
105 *535:285 *2004:A 4.69698e-05
106 *535:285 *2211:A 0
107 *535:290 *1822:A1 6.62898e-05
108 *535:290 *1822:B1 0.000141985
109 *535:290 *2006:A 0.000130035
110 *535:290 *2114:CLK 2.37369e-05
111 *535:290 *2160:A 2.89016e-05
112 *535:290 *2211:A 1.56e-05
113 *535:290 *549:12 4.93642e-05
114 *535:290 *549:86 7.589e-05
115 *535:290 *687:36 0.000144268
116 *535:294 *549:12 4.63933e-05
117 *535:296 *549:12 1.40415e-05
118 *535:296 *740:8 1.16695e-06
119 *535:313 *1803:A2 2.2997e-05
120 *535:313 *548:6 7.25873e-06
121 *535:313 *548:58 9.65127e-05
122 *535:313 *740:8 1.28637e-05
123 *535:317 *2195:A 2.85234e-05
124 *535:326 *2195:A 2.87725e-05
125 *535:337 *1895:B1 6.76113e-05
126 *535:337 *1905:A1 5.1061e-05
127 *535:351 *1906:B1 0
128 *535:351 *1907:A1 8.15939e-05
129 *535:351 *2105:CLK 0
130 *1668:A *2130:A 3.20883e-05
131 *1722:A3 *535:15 3.92854e-05
132 *1743:B1 *2125:A 5.03772e-05
133 *1769:A2 *535:33 0.000135962
134 *1771:A *535:76 6.33946e-05
135 *1771:B *535:76 2.59355e-05
136 *1783:A2 *535:15 0
137 *1783:A2 *535:133 6.07908e-05
138 *1788:B1 *535:43 0
139 *1794:C1 *535:176 0
140 *1798:B1 *535:13 3.32631e-05
141 *1798:B1 *535:15 4.35131e-05
142 *1798:B1 *535:209 8.79872e-05
143 *1840:A *535:245 4.95298e-05
144 *1840:A *535:259 3.43988e-06
145 *1857:B1 *535:106 3.43988e-06
146 *1863:A2 *535:106 9.28458e-05
147 *1863:B1 *535:106 0.000305386
148 *1872:B *535:86 0.00013331
149 *1882:B *535:86 6.82912e-05
150 *1882:C *535:86 4.4198e-05
151 *1884:B *535:76 2.85321e-05
152 *1884:B *535:86 6.05161e-06
153 *1884:C *535:86 1.74352e-05
154 *1885:A1 *535:76 1.57523e-05
155 *2037:D *535:337 4.94761e-05
156 *2050:RESET_B *535:154 7.57941e-05
157 *2052:RESET_B *535:15 8.15977e-05
158 *2052:RESET_B *535:33 4.05231e-05
159 *2059:D *535:15 6.65302e-05
160 *2072:D *535:245 0
161 *2080:D *2130:A 3.20883e-05
162 *2080:D *535:245 0
163 *2086:RESET_B *535:43 0.000120145
164 *2091:D *535:43 0
165 *2101:D *535:209 7.26935e-05
166 *2101:SET_B *535:209 0
167 *2102:D *535:209 0
168 *2104:RESET_B *535:209 0
169 *2105:D *535:351 0
170 *2114:RESET_B *535:290 7.02611e-05
171 *2115:D *535:233 2.11693e-05
172 *2115:RESET_B *535:233 0
173 *2117:RESET_B *535:290 1.15281e-05
174 *2190:A *535:290 1.65169e-05
175 *2220:A *535:313 9.16808e-05
176 *13:12 *535:154 0
177 *348:20 *2125:A 5.33433e-05
178 *383:12 *535:245 2.15121e-05
179 *446:12 *535:33 0.000746025
180 *447:12 *535:76 2.97489e-05
181 *447:18 *535:106 1.34836e-05
182 *450:12 *535:15 8.14124e-05
183 *482:34 *535:86 0
184 *491:23 *535:86 0
185 *491:23 *535:106 0
186 *495:26 *535:86 4.75008e-05
187 *500:10 *535:86 2.15363e-05
188 *504:6 *535:76 9.35307e-05
189 *504:19 *535:76 4.84159e-05
190 *522:16 *535:313 8.1654e-05
*RES
1 *2123:X *535:6 10.6616 
2 *535:6 *535:13 6.67411 
3 *535:13 *535:15 13.1786 
4 *535:15 *535:33 17.4244 
5 *535:33 *535:43 7.82143 
6 *535:43 *2132:A 13.8 
7 *535:33 *535:57 5.65179 
8 *535:57 *535:61 1.5625 
9 *535:61 *535:63 1.45089 
10 *535:63 *535:76 13.2455 
11 *535:76 *535:86 17.1741 
12 *535:86 *2131:A 11.492 
13 *535:76 *535:106 15.0714 
14 *535:106 *2124:A 14.3893 
15 *535:61 *2133:A 9.3 
16 *535:15 *535:133 9.57143 
17 *535:133 *535:137 1.5 
18 *535:137 *535:139 4.5 
19 *535:139 *535:154 14.7955 
20 *535:154 *535:160 4.67065 
21 *535:160 *2138:A 13.8 
22 *535:154 *535:174 5.11453 
23 *535:174 *535:176 4.83036 
24 *535:176 *2125:A 14.7464 
25 *535:174 *535:190 4.83036 
26 *535:190 *2126:A 14.3893 
27 *535:137 *2139:A 9.3 
28 *535:13 *535:209 8.92857 
29 *535:209 *535:215 5.44643 
30 *535:215 *2127:A 9.3 
31 *535:215 *535:224 5.85714 
32 *535:224 *535:233 11.0625 
33 *535:233 *535:239 10.3983 
34 *535:239 *535:245 5.49107 
35 *535:245 *2129:A 15.1571 
36 *535:239 *535:259 0.276786 
37 *535:259 *2130:A 14.3893 
38 *535:233 *535:276 5.44643 
39 *535:276 *2128:A 9.3 
40 *535:276 *535:285 2.59821 
41 *535:285 *535:290 22.7143 
42 *535:290 *535:294 1.5625 
43 *535:294 *535:296 1.41518 
44 *535:296 *535:313 19.1384 
45 *535:313 *535:317 1.76786 
46 *535:317 *2136:A 9.3 
47 *535:317 *535:326 1.88393 
48 *535:326 *535:331 2.38393 
49 *535:331 *535:337 11.3929 
50 *535:337 *2134:A 13.8 
51 *535:331 *535:351 11.6071 
52 *535:351 *2135:A 13.8 
53 *535:294 *2137:A 10.0321 
*END

*D_NET *536 0.00791021
*CONN
*I *2063:CLK I *D sky130_fd_sc_hd__dfrtp_2
*I *2140:A I *D sky130_fd_sc_hd__clkbuf_4
*I *2020:CLK I *D sky130_fd_sc_hd__dfxtp_2
*I *2065:CLK I *D sky130_fd_sc_hd__dfrtp_2
*I *2064:CLK I *D sky130_fd_sc_hd__dfrtp_2
*I *2019:CLK I *D sky130_fd_sc_hd__dfxtp_2
*I *2017:CLK I *D sky130_fd_sc_hd__dfxtp_2
*I *2018:CLK I *D sky130_fd_sc_hd__dfxtp_2
*I *2124:X O *D sky130_fd_sc_hd__clkbuf_8
*CAP
1 *2063:CLK 0.000180949
2 *2140:A 0.000280172
3 *2020:CLK 0.000150046
4 *2065:CLK 8.99206e-05
5 *2064:CLK 2.65188e-05
6 *2019:CLK 0
7 *2017:CLK 0
8 *2018:CLK 0.000273867
9 *2124:X 0.000180949
10 *536:40 2.65188e-05
11 *536:20 0.000680028
12 *536:12 0.00049691
13 *536:10 0.000312099
14 *536:8 0.000718922
15 *536:6 0.000717619
16 *2018:CLK *662:8 2.85321e-05
17 *2020:CLK *1852:A 4.96113e-05
18 *2020:CLK *1852:B 9.41642e-05
19 *2020:CLK *1852:D 0.000358971
20 *2020:CLK *665:6 6.05161e-06
21 *2020:CLK *666:22 0.000245832
22 *2063:CLK *1863:A1 5.52238e-05
23 *2063:CLK *675:16 1.21258e-05
24 *2063:CLK *677:50 2.60984e-05
25 *2063:CLK *679:48 0.000513591
26 *2064:CLK *1854:A 5.23822e-05
27 *2065:CLK *1855:A1 0.000143828
28 *2065:CLK *678:16 7.62323e-05
29 *2140:A *1863:A1 0.000124076
30 *536:8 *1856:B1 0
31 *536:8 *666:41 0
32 *536:8 *667:12 7.50697e-05
33 *536:8 *677:50 0
34 *536:10 *2290:A 0
35 *536:10 *659:14 0
36 *536:10 *666:41 0
37 *536:10 *678:16 2.03292e-05
38 *536:12 *678:16 6.93626e-06
39 *536:12 *678:18 6.18755e-05
40 *536:20 *678:18 1.50223e-05
41 *536:20 *678:20 4.31723e-05
42 *536:20 *678:22 3.79779e-05
43 *1772:A *2063:CLK 9.41642e-05
44 *1848:A *2018:CLK 0.000535738
45 *1851:B *536:12 0.000186697
46 *1851:B *536:20 0.00014852
47 *1855:A2 *536:20 0.000111981
48 *1866:C *2140:A 6.18969e-06
49 *1866:C *536:8 3.0305e-05
50 *2017:D *536:20 1.64343e-05
51 *2018:D *2018:CLK 0.00012443
52 *2023:D *2140:A 0.00010326
53 *2124:A *2063:CLK 3.20982e-05
54 *254:14 *2020:CLK 8.58712e-05
55 *479:18 *2018:CLK 0.000215636
56 *479:18 *536:20 2.57552e-06
57 *482:8 *536:8 0
58 *482:34 *2140:A 0
59 *482:34 *536:8 0
60 *484:12 *2064:CLK 3.4689e-05
*RES
1 *2124:X *536:6 13.8 
2 *536:6 *536:8 7.10714 
3 *536:8 *536:10 2.25 
4 *536:10 *536:12 2.85714 
5 *536:12 *536:20 11.8929 
6 *536:20 *2018:CLK 18.2107 
7 *536:20 *2017:CLK 9.3 
8 *536:12 *536:40 4.5 
9 *536:40 *2019:CLK 9.3 
10 *536:40 *2064:CLK 10.2464 
11 *536:10 *2065:CLK 16.3893 
12 *536:8 *2020:CLK 19.675 
13 *536:6 *2140:A 18.7821 
14 *2124:X *2063:CLK 23.6536 
*END

*D_NET *537 0.00791276
*CONN
*I *2152:A I *D sky130_fd_sc_hd__clkbuf_4
*I *2098:CLK I *D sky130_fd_sc_hd__dfrtp_2
*I *2094:CLK I *D sky130_fd_sc_hd__dfstp_2
*I *2093:CLK I *D sky130_fd_sc_hd__dfrtp_2
*I *2092:CLK I *D sky130_fd_sc_hd__dfrtp_2
*I *2062:CLK I *D sky130_fd_sc_hd__dfrtp_2
*I *2054:CLK I *D sky130_fd_sc_hd__dfrtp_2
*I *2096:CLK I *D sky130_fd_sc_hd__dfrtp_2
*I *2125:X O *D sky130_fd_sc_hd__clkbuf_8
*CAP
1 *2152:A 0.0002969
2 *2098:CLK 0.000146494
3 *2094:CLK 0.000338113
4 *2093:CLK 0
5 *2092:CLK 0.000310051
6 *2062:CLK 0
7 *2054:CLK 0
8 *2096:CLK 0.000393735
9 *2125:X 1.1624e-05
10 *537:69 0.000484607
11 *537:28 0.000738114
12 *537:22 0.000522628
13 *537:14 0.000681662
14 *537:12 0.000287453
15 *537:10 0.00023615
16 *537:8 0.000450582
17 *2092:CLK *1951:A 0.000200231
18 *2094:CLK *1741:A2 0.000189335
19 *2094:CLK *1791:B1 5.33005e-05
20 *2094:CLK *721:14 5.52302e-05
21 *2094:CLK *721:25 0.000264962
22 *2096:CLK *692:31 7.70015e-05
23 *2096:CLK *692:42 8.80814e-05
24 *2098:CLK *1741:B1 6.26078e-05
25 *2098:CLK *721:25 1.59935e-05
26 *2098:CLK *721:36 9.94194e-06
27 *2152:A *1741:A1 0
28 *2152:A *2095:D 0.000173457
29 *2152:A *556:88 0
30 *537:10 *1741:A1 0
31 *537:10 *721:36 5.66157e-05
32 *537:12 *721:14 0
33 *537:12 *721:36 0.000175512
34 *537:14 *1717:C 0.000152333
35 *537:14 *2093:D 3.5707e-05
36 *537:14 *721:36 2.48938e-05
37 *537:28 *1737:A 6.55123e-05
38 *537:28 *1737:B 5.52302e-05
39 *537:28 *692:42 0.000104986
40 *1716:A *537:22 0.000134773
41 *1716:A *537:28 1.74352e-05
42 *1718:B1 *2092:CLK 5.52238e-05
43 *1740:B2 *537:28 5.33433e-05
44 *1794:B1 *2152:A 9.69119e-06
45 *1794:B1 *537:10 4.43698e-05
46 *1794:B1 *537:14 6.85697e-05
47 *1794:B1 *537:22 7.79781e-06
48 *1794:C1 *2152:A 0.000188513
49 *1794:C1 *537:8 5.52238e-05
50 *2049:RESET_B *2096:CLK 9.36295e-05
51 *2049:RESET_B *537:28 9.86602e-05
52 *2062:D *2092:CLK 2.59355e-05
53 *2062:D *537:22 0.000121573
54 *2062:RESET_B *2092:CLK 1.56e-05
55 *2096:D *2096:CLK 0
56 *13:12 *2096:CLK 0
57 *348:20 *537:8 5.52238e-05
58 *349:19 *2152:A 0
59 *407:25 *537:22 9.11365e-06
60 *421:10 *537:28 9.90367e-05
*RES
1 *2125:X *537:8 14.3357 
2 *537:8 *537:10 2.55357 
3 *537:10 *537:12 2.25 
4 *537:12 *537:14 4.67857 
5 *537:14 *537:22 8.42857 
6 *537:22 *537:28 12.5179 
7 *537:28 *2096:CLK 22.2643 
8 *537:28 *2054:CLK 13.8 
9 *537:22 *2062:CLK 9.3 
10 *537:14 *2092:CLK 19.675 
11 *537:12 *2093:CLK 13.8 
12 *537:10 *537:69 4.5 
13 *537:69 *2094:CLK 16.425 
14 *537:69 *2098:CLK 11.9071 
15 *537:8 *2152:A 20.55 
*END

*D_NET *538 0.00898091
*CONN
*I *2016:CLK I *D sky130_fd_sc_hd__dfrtp_2
*I *2097:CLK I *D sky130_fd_sc_hd__dfrtp_2
*I *2015:CLK I *D sky130_fd_sc_hd__dfstp_2
*I *2083:CLK I *D sky130_fd_sc_hd__dfrtp_2
*I *2153:A I *D sky130_fd_sc_hd__clkbuf_4
*I *2050:CLK I *D sky130_fd_sc_hd__dfrtp_2
*I *2056:CLK I *D sky130_fd_sc_hd__dfrtp_2
*I *2095:CLK I *D sky130_fd_sc_hd__dfrtp_2
*I *2126:X O *D sky130_fd_sc_hd__clkbuf_8
*CAP
1 *2016:CLK 0.000435684
2 *2097:CLK 5.12585e-05
3 *2015:CLK 0
4 *2083:CLK 0.000445075
5 *2153:A 0
6 *2050:CLK 0.000442771
7 *2056:CLK 0.000577727
8 *2095:CLK 0.000458702
9 *2126:X 7.3166e-05
10 *538:76 0.000627184
11 *538:65 0.000422597
12 *538:40 0.000887846
13 *538:12 0.00114919
14 *538:10 0.00020086
15 *538:8 0.000443624
16 *2016:CLK *1779:A1 3.14048e-05
17 *2016:CLK *776:8 6.62983e-05
18 *2050:CLK *1735:A1 5.33005e-05
19 *2050:CLK *1735:B1 4.84159e-05
20 *2050:CLK *1945:A 0.000356677
21 *2050:CLK *556:12 5.66426e-05
22 *2050:CLK *571:6 7.0172e-05
23 *2050:CLK *692:78 1.12713e-05
24 *2056:CLK *1796:A 6.4443e-05
25 *2083:CLK *1637:A 7.22574e-05
26 *2083:CLK *1945:A 0.000300778
27 *2097:CLK *2097:D 3.18676e-05
28 *538:8 *694:53 0.000182811
29 *538:65 *1986:A 0
30 *538:65 *565:10 3.15645e-05
31 *538:76 *1986:A 0
32 *1736:A1 *538:65 0.00024265
33 *1778:A2 *538:65 6.98806e-05
34 *1779:B1_N *2016:CLK 9.75639e-05
35 *1794:C1 *2095:CLK 5.07737e-05
36 *1794:C1 *538:10 5.65621e-05
37 *1794:C1 *538:12 6.88561e-05
38 *1794:C1 *538:65 8.93068e-05
39 *2015:D *2016:CLK 4.16984e-05
40 *2015:D *538:65 0
41 *2015:D *538:76 0
42 *2015:SET_B *538:76 0
43 *2056:D *2056:CLK 0.000102074
44 *2095:RESET_B *2095:CLK 0.000192658
45 *2097:RESET_B *538:76 0
46 *2170:A *538:65 0
47 *2170:A *538:76 0
48 *2175:A *2056:CLK 0.000137639
49 *346:21 *538:65 3.43582e-05
50 *350:10 *2083:CLK 5.50052e-05
51 *535:176 *2095:CLK 4.16234e-05
52 *535:190 *2095:CLK 6.92694e-06
53 *535:190 *538:10 3.61917e-05
54 *535:190 *538:12 6.35524e-05
*RES
1 *2126:X *538:8 15.5679 
2 *538:8 *538:10 2.25 
3 *538:10 *538:12 2.85714 
4 *538:12 *2095:CLK 21.3714 
5 *538:12 *2056:CLK 23.7821 
6 *538:10 *538:40 4.5 
7 *538:40 *2050:CLK 17.6571 
8 *538:40 *2153:A 9.3 
9 *538:40 *2083:CLK 17.2464 
10 *538:8 *538:65 7.41071 
11 *538:65 *2015:CLK 13.8 
12 *538:65 *538:76 7.05357 
13 *538:76 *2097:CLK 10.2464 
14 *538:76 *2016:CLK 17.2286 
*END

*D_NET *539 0.0113518
*CONN
*I *2078:CLK I *D sky130_fd_sc_hd__dfrtp_2
*I *2101:CLK I *D sky130_fd_sc_hd__dfstp_2
*I *2102:CLK I *D sky130_fd_sc_hd__dfstp_2
*I *2103:CLK I *D sky130_fd_sc_hd__dfrtp_2
*I *2013:CLK I *D sky130_fd_sc_hd__dfstp_2
*I *2142:A I *D sky130_fd_sc_hd__clkbuf_4
*I *2116:CLK I *D sky130_fd_sc_hd__dfrtp_2
*I *2104:CLK I *D sky130_fd_sc_hd__dfrtp_2
*I *2127:X O *D sky130_fd_sc_hd__clkbuf_8
*CAP
1 *2078:CLK 0.000273665
2 *2101:CLK 0
3 *2102:CLK 2.23854e-05
4 *2103:CLK 0
5 *2013:CLK 9.12405e-05
6 *2142:A 0.000797777
7 *2116:CLK 0
8 *2104:CLK 0.000374134
9 *2127:X 0.000302727
10 *539:84 0.000273665
11 *539:63 0.00095665
12 *539:35 0.00112386
13 *539:24 0.000825845
14 *539:20 0.00139481
15 *539:18 0.000794927
16 *539:10 0.000671496
17 *2078:CLK *695:18 9.83388e-05
18 *2078:CLK *695:20 0.000231002
19 *2078:CLK *695:30 0.000228514
20 *2142:A *1654:A 0
21 *2142:A *1820:A 0
22 *2142:A *696:53 0.000126639
23 *539:10 *695:30 0.000222878
24 *539:10 *758:14 0
25 *539:18 *695:30 1.02504e-05
26 *539:18 *708:10 5.39629e-06
27 *539:24 *1621:B1 5.01213e-05
28 *539:24 *711:10 0
29 *539:35 *1821:A 0
30 *539:35 *2160:A 6.16958e-05
31 *539:63 *711:20 3.47797e-05
32 *1799:A2 *539:20 5.71472e-05
33 *1821:C *2142:A 0.000376384
34 *1821:C *539:35 0.000249923
35 *2077:RESET_B *2078:CLK 3.08664e-05
36 *2101:D *539:18 0
37 *2101:D *539:20 0.000140933
38 *2101:SET_B *539:10 0
39 *2101:SET_B *539:18 0
40 *2102:D *539:18 3.67257e-05
41 *2102:SET_B *539:18 0
42 *2103:RESET_B *539:24 0
43 *2103:RESET_B *539:35 0
44 *2104:RESET_B *2104:CLK 2.51837e-05
45 *2104:RESET_B *539:24 5.66157e-05
46 *2104:RESET_B *539:35 0.000128161
47 *2116:D *539:35 5.48488e-05
48 *2393:A *2142:A 0.000446603
49 *337:12 *2104:CLK 0.00021528
50 *341:31 *539:20 0.000174317
51 *341:31 *539:63 3.14193e-05
52 *365:12 *2142:A 5.52238e-05
53 *464:10 *2142:A 0.00013053
54 *464:16 *2142:A 0.000168822
*RES
1 *2127:X *539:10 19.425 
2 *539:10 *539:18 9.57143 
3 *539:18 *539:20 7.10714 
4 *539:20 *539:24 6.75 
5 *539:24 *2104:CLK 20.9071 
6 *539:24 *539:35 7.41071 
7 *539:35 *2116:CLK 13.8 
8 *539:35 *2142:A 31.4607 
9 *539:20 *539:63 10.5714 
10 *539:63 *2013:CLK 10.6571 
11 *539:63 *2103:CLK 9.3 
12 *539:18 *2102:CLK 9.72857 
13 *539:10 *539:84 4.5 
14 *539:84 *2101:CLK 9.3 
15 *539:84 *2078:CLK 15.6036 
*END

*D_NET *540 0.00961591
*CONN
*I *2074:CLK I *D sky130_fd_sc_hd__dfrtp_2
*I *2067:CLK I *D sky130_fd_sc_hd__dfrtp_2
*I *2066:CLK I *D sky130_fd_sc_hd__dfrtp_2
*I *2113:CLK I *D sky130_fd_sc_hd__dfrtp_2
*I *2111:CLK I *D sky130_fd_sc_hd__dfrtp_2
*I *2112:CLK I *D sky130_fd_sc_hd__dfrtp_2
*I *2143:A I *D sky130_fd_sc_hd__clkbuf_4
*I *2117:CLK I *D sky130_fd_sc_hd__dfrtp_2
*I *2128:X O *D sky130_fd_sc_hd__clkbuf_8
*CAP
1 *2074:CLK 0
2 *2067:CLK 0.000299607
3 *2066:CLK 6.35394e-05
4 *2113:CLK 0
5 *2111:CLK 0.000194248
6 *2112:CLK 0
7 *2143:A 2.52229e-05
8 *2117:CLK 0.000888937
9 *2128:X 6.64726e-05
10 *540:79 0.000587189
11 *540:54 0.000459275
12 *540:48 0.000691703
13 *540:44 0.000765206
14 *540:40 0.000457047
15 *540:21 0.000518663
16 *540:8 0.00110629
17 *2066:CLK *1689:A 2.79421e-05
18 *2067:CLK *673:21 8.32454e-06
19 *2067:CLK *673:34 5.85373e-05
20 *2067:CLK *773:20 0.000181183
21 *2111:CLK *752:10 3.06123e-05
22 *2111:CLK *752:12 0.000126416
23 *2111:CLK *752:16 0.000256246
24 *2117:CLK *1673:A_N 0.000107276
25 *2117:CLK *1823:B 7.22574e-05
26 *2143:A *696:53 5.52238e-05
27 *540:21 *1673:A_N 7.60694e-05
28 *540:21 *696:53 0
29 *540:21 *696:61 3.17148e-05
30 *540:40 *2265:A 0
31 *540:40 *696:61 0.000315894
32 *540:44 *2265:A 1.41706e-05
33 *540:44 *673:10 5.35423e-05
34 *540:44 *696:61 0
35 *540:48 *754:8 0.00025664
36 *540:54 *1653:D_N 1.33343e-05
37 *540:54 *752:16 0.000369811
38 *540:54 *754:48 0.000208678
39 *540:79 *2002:A 9.59532e-06
40 *540:79 *673:10 6.25608e-05
41 *540:79 *696:61 0
42 *540:79 *700:84 0.000185408
43 *540:79 *773:20 0.000198432
44 *1705:B *2067:CLK 3.31595e-05
45 *1705:B *540:79 0.000128154
46 *1812:B *2111:CLK 0.000171355
47 *1815:D *540:54 7.03295e-05
48 *2074:D *540:44 4.79842e-05
49 *2112:D *2111:CLK 9.50149e-05
50 *2115:D *2117:CLK 0.000226647
51 *459:58 *2111:CLK 0
52 *459:58 *540:54 0
53 *535:233 *2117:CLK 0
*RES
1 *2128:X *540:8 14.7464 
2 *540:8 *2117:CLK 29.8 
3 *540:8 *540:21 3.16071 
4 *540:21 *2143:A 14.3357 
5 *540:21 *540:40 10.7857 
6 *540:40 *540:44 7.35714 
7 *540:44 *540:48 12.4286 
8 *540:48 *540:54 11.7679 
9 *540:54 *2112:CLK 13.8 
10 *540:54 *2111:CLK 19.7286 
11 *540:48 *2113:CLK 9.3 
12 *540:44 *540:79 7.10714 
13 *540:79 *2066:CLK 14.7464 
14 *540:79 *2067:CLK 20.1393 
15 *540:40 *2074:CLK 9.3 
*END

*D_NET *541 0.00801978
*CONN
*I *2072:CLK I *D sky130_fd_sc_hd__dfrtp_2
*I *2080:CLK I *D sky130_fd_sc_hd__dfrtp_2
*I *2144:A I *D sky130_fd_sc_hd__clkbuf_4
*I *2076:CLK I *D sky130_fd_sc_hd__dfrtp_2
*I *2115:CLK I *D sky130_fd_sc_hd__dfrtp_2
*I *2077:CLK I *D sky130_fd_sc_hd__dfrtp_2
*I *2081:CLK I *D sky130_fd_sc_hd__dfrtp_2
*I *2079:CLK I *D sky130_fd_sc_hd__dfrtp_2
*I *2129:X O *D sky130_fd_sc_hd__clkbuf_8
*CAP
1 *2072:CLK 8.96734e-05
2 *2080:CLK 0
3 *2144:A 0
4 *2076:CLK 0
5 *2115:CLK 0.000212831
6 *2077:CLK 0.00031408
7 *2081:CLK 0.000325922
8 *2079:CLK 0.000271657
9 *2129:X 0.000121148
10 *541:65 0.000943422
11 *541:44 0.00111785
12 *541:40 0.000347368
13 *541:36 0.000274188
14 *541:12 0.000726474
15 *541:10 0.000267026
16 *541:8 0.000348953
17 *2077:CLK *1965:A 5.52302e-05
18 *2077:CLK *701:92 9.61455e-05
19 *2079:CLK *1666:A 5.71472e-05
20 *2079:CLK *1670:B 9.56968e-05
21 *2079:CLK *701:92 5.33334e-05
22 *2115:CLK *1673:A_N 0.000186765
23 *541:8 *1678:A 0.000117432
24 *541:8 *1678:B 0.000204871
25 *541:12 *1670:B 6.07232e-05
26 *541:12 *1678:C 0
27 *541:40 *2165:A 0.000472524
28 *541:44 *2165:A 6.87574e-05
29 *1664:C *2077:CLK 0.000111132
30 *1668:B *2079:CLK 0
31 *1668:B *541:12 0
32 *1669:A2 *2077:CLK 2.21254e-05
33 *1669:A2 *541:65 2.98475e-05
34 *1673:B *2115:CLK 5.26625e-05
35 *1673:B *541:65 2.05422e-05
36 *1674:B *2115:CLK 5.16342e-05
37 *2076:RESET_B *2077:CLK 0.000127806
38 *2076:RESET_B *541:65 2.81499e-05
39 *2080:D *2072:CLK 0.000173021
40 *2080:D *541:10 0.000144132
41 *2081:D *2081:CLK 5.33334e-05
42 *2129:A *541:8 5.33005e-05
43 *376:12 *2081:CLK 0.000225616
44 *535:245 *2072:CLK 8.04432e-05
45 *535:245 *541:10 1.6815e-05
*RES
1 *2129:X *541:8 17.6214 
2 *541:8 *541:10 2.55357 
3 *541:10 *541:12 2.55357 
4 *541:12 *2079:CLK 19.0679 
5 *541:12 *2081:CLK 19.675 
6 *541:10 *541:36 4.5 
7 *541:36 *541:40 5.89286 
8 *541:40 *541:44 5.85714 
9 *541:44 *2077:CLK 21.3893 
10 *541:44 *541:65 14.0893 
11 *541:65 *2115:CLK 13.9429 
12 *541:65 *2076:CLK 9.3 
13 *541:40 *2144:A 9.3 
14 *541:36 *2080:CLK 9.3 
15 *541:8 *2072:CLK 16.5857 
*END

*D_NET *542 0.010505
*CONN
*I *2069:CLK I *D sky130_fd_sc_hd__dfrtp_2
*I *2068:CLK I *D sky130_fd_sc_hd__dfrtp_2
*I *2070:CLK I *D sky130_fd_sc_hd__dfrtp_2
*I *2071:CLK I *D sky130_fd_sc_hd__dfrtp_2
*I *2073:CLK I *D sky130_fd_sc_hd__dfrtp_2
*I *2145:A I *D sky130_fd_sc_hd__clkbuf_4
*I *2075:CLK I *D sky130_fd_sc_hd__dfrtp_2
*I *2130:X O *D sky130_fd_sc_hd__clkbuf_8
*CAP
1 *2069:CLK 6.32686e-05
2 *2068:CLK 0.000536616
3 *2070:CLK 0
4 *2071:CLK 0.000460345
5 *2073:CLK 0.000138551
6 *2145:A 0
7 *2075:CLK 0.000423661
8 *2130:X 0.000141411
9 *542:73 0.0012864
10 *542:60 0.000716688
11 *542:43 0.000828276
12 *542:14 0.000577998
13 *542:12 0.000292888
14 *542:10 0.000479173
15 *2068:CLK *764:14 3.2033e-05
16 *2069:CLK *764:14 6.23278e-05
17 *2069:CLK *765:60 3.79254e-05
18 *2071:CLK *699:58 6.42145e-05
19 *2071:CLK *700:59 0
20 *2071:CLK *766:14 3.73374e-05
21 *2073:CLK *769:8 0.000490416
22 *2075:CLK *1647:A 0.000136951
23 *2075:CLK *1676:A 0.000310292
24 *2075:CLK *757:24 3.80079e-05
25 *2075:CLK *757:39 9.92409e-05
26 *2075:CLK *769:8 0.000431224
27 *2075:CLK *771:16 0.000114218
28 *542:10 *1693:A 1.76039e-05
29 *542:10 *700:46 0
30 *542:14 *769:8 0.000528337
31 *542:43 *1693:A 4.56594e-05
32 *542:43 *1694:A 8.16036e-05
33 *542:43 *700:46 0
34 *542:43 *700:59 0
35 *542:43 *766:14 5.26091e-05
36 *542:43 *767:25 0
37 *542:60 *766:14 2.66227e-05
38 *542:73 *764:14 9.54364e-05
39 *542:73 *765:10 0
40 *542:73 *765:60 0
41 *542:73 *766:14 1.37643e-05
42 *1668:A *542:10 5.33005e-05
43 *1668:B *542:10 5.41794e-05
44 *1673:B *2075:CLK 2.60017e-05
45 *1676:C *2075:CLK 0
46 *1676:D *2075:CLK 0
47 *1679:A *2075:CLK 8.25843e-06
48 *1681:B1 *2075:CLK 7.79937e-05
49 *1686:B *542:43 0.00015234
50 *1686:B *542:60 7.10552e-05
51 *1686:B *542:73 4.58703e-05
52 *1693:B *542:14 0.000142856
53 *1693:B *542:43 0
54 *1695:B *542:73 6.42242e-05
55 *1696:B *542:73 3.25078e-05
56 *1840:A *542:10 0
57 *2069:RESET_B *542:73 3.18227e-05
58 *2070:D *2071:CLK 7.48091e-05
59 *2071:D *542:43 0
60 *2072:D *2073:CLK 0.000145019
61 *2072:D *542:10 0.000173083
62 *2072:D *542:14 2.59355e-05
63 *385:29 *2075:CLK 0.000288708
64 *389:10 *542:43 0.000128146
65 *389:14 *542:43 0.000247786
*RES
1 *2130:X *542:10 17.1929 
2 *542:10 *542:12 4.5 
3 *542:12 *542:14 5.05357 
4 *542:14 *2075:CLK 30.6929 
5 *542:14 *2145:A 9.3 
6 *542:12 *2073:CLK 14.3714 
7 *542:10 *542:43 8.625 
8 *542:43 *2071:CLK 29.0857 
9 *542:43 *542:60 1.03571 
10 *542:60 *2070:CLK 13.8 
11 *542:60 *542:73 15.6429 
12 *542:73 *2068:CLK 15.4964 
13 *542:73 *2069:CLK 19.9429 
*END

*D_NET *543 0.00829171
*CONN
*I *2023:CLK I *D sky130_fd_sc_hd__dfxtp_2
*I *2021:CLK I *D sky130_fd_sc_hd__dfxtp_2
*I *2022:CLK I *D sky130_fd_sc_hd__dfxtp_2
*I *2024:CLK I *D sky130_fd_sc_hd__dfxtp_2
*I *2028:CLK I *D sky130_fd_sc_hd__dfxtp_2
*I *2027:CLK I *D sky130_fd_sc_hd__dfxtp_2
*I *2026:CLK I *D sky130_fd_sc_hd__dfxtp_2
*I *2131:X O *D sky130_fd_sc_hd__clkbuf_8
*CAP
1 *2023:CLK 0
2 *2021:CLK 0.000220144
3 *2022:CLK 0.000235986
4 *2024:CLK 2.22847e-05
5 *2028:CLK 0.000266027
6 *2027:CLK 0
7 *2026:CLK 3.7311e-05
8 *2131:X 0.000307681
9 *543:81 0.000220144
10 *543:66 0.000392167
11 *543:37 0.000738585
12 *543:22 0.000961973
13 *543:16 0.000905292
14 *543:10 0.000894765
15 *2021:CLK *1865:A 2.59355e-05
16 *2021:CLK *1865:C 0.000148438
17 *2021:CLK *1865:D 0.000135028
18 *2022:CLK *1865:D 0.000145761
19 *2022:CLK *1867:A 0.000167498
20 *2022:CLK *2296:A 0.000150625
21 *2028:CLK *702:10 4.884e-05
22 *543:10 *669:10 3.06878e-06
23 *543:16 *669:10 4.00276e-06
24 *543:37 *1875:A1 0
25 *543:37 *686:12 0
26 *543:66 *1865:A 0.000170575
27 *543:66 *2296:A 0.000404008
28 *543:66 *669:10 0.000124083
29 *543:66 *697:14 3.5626e-05
30 pcRegister[10] *543:22 0
31 pcRegister[11] *543:22 0
32 pcRegister[14] *543:37 0
33 pcRegister[15] *543:37 0
34 pcRegister[8] *543:22 0
35 *1860:C *2022:CLK 4.73625e-05
36 *1874:A *543:37 5.80706e-06
37 *1874:B *2028:CLK 0.000643687
38 *1874:B *543:37 2.12087e-05
39 *1875:A2 *543:37 0
40 *1875:B1 *2028:CLK 3.4993e-05
41 *1875:B1 *543:37 1.78211e-05
42 *2022:D *2022:CLK 6.09899e-05
43 *2023:D *2021:CLK 8.43535e-06
44 *2024:D *2022:CLK 0
45 *2024:D *543:16 0.000145973
46 *2024:D *543:66 0
47 *2027:D *2028:CLK 0.000143447
48 *2027:D *543:37 0
49 *2131:A *543:10 8.44747e-05
50 *491:8 *2021:CLK 0.000102197
51 *495:26 *543:10 9.90367e-05
52 *535:86 *543:10 0.00011043
*RES
1 *2131:X *543:10 14.4964 
2 *543:10 *543:16 6.42857 
3 *543:16 *543:22 12.1429 
4 *543:22 *2026:CLK 14.3357 
5 *543:22 *543:37 12.4464 
6 *543:37 *2027:CLK 9.3 
7 *543:37 *2028:CLK 17.8 
8 *543:16 *2024:CLK 9.72857 
9 *543:10 *543:66 10.0893 
10 *543:66 *2022:CLK 19.4429 
11 *543:66 *543:81 4.5 
12 *543:81 *2021:CLK 14.3714 
13 *543:81 *2023:CLK 9.3 
*END

*D_NET *544 0.0104101
*CONN
*I *2061:CLK I *D sky130_fd_sc_hd__dfrtp_2
*I *2100:CLK I *D sky130_fd_sc_hd__dfrtp_2
*I *2099:CLK I *D sky130_fd_sc_hd__dfrtp_2
*I *2087:CLK I *D sky130_fd_sc_hd__dfstp_2
*I *2058:CLK I *D sky130_fd_sc_hd__dfrtp_2
*I *2057:CLK I *D sky130_fd_sc_hd__dfrtp_2
*I *2141:A I *D sky130_fd_sc_hd__clkbuf_4
*I *2089:CLK I *D sky130_fd_sc_hd__dfrtp_2
*I *2132:X O *D sky130_fd_sc_hd__clkbuf_8
*CAP
1 *2061:CLK 0
2 *2100:CLK 0.000288502
3 *2099:CLK 0.000173808
4 *2087:CLK 0
5 *2058:CLK 2.22708e-05
6 *2057:CLK 0.000624289
7 *2141:A 0.000707991
8 *2089:CLK 8.43478e-05
9 *2132:X 0
10 *544:77 0.000226178
11 *544:42 0.00091895
12 *544:40 0.000415029
13 *544:36 0.000508114
14 *544:34 0.000634455
15 *544:6 0.000953946
16 *544:4 0.000726918
17 *2057:CLK *723:8 5.23735e-05
18 *2057:CLK *724:12 1.94945e-05
19 *2057:CLK *731:41 0.000327536
20 *2099:CLK *2157:A 9.58689e-05
21 *2099:CLK *2255:A 4.63305e-05
22 *2099:CLK *731:41 1.24368e-05
23 *2100:CLK *701:24 9.84729e-05
24 *2141:A *1978:A 5.2568e-05
25 *2141:A *2086:CLK 0.000279035
26 *2141:A *737:10 0.000148449
27 *544:34 *1758:A2 7.15687e-05
28 *544:34 *555:84 0
29 *544:34 *732:22 9.47456e-05
30 *544:34 *735:10 2.49484e-05
31 *544:40 *1610:A 0.000311309
32 *544:42 *731:41 7.74613e-05
33 *544:77 *2156:A 1.21258e-05
34 *1720:A2 *2100:CLK 5.50052e-05
35 *1725:A *2100:CLK 2.12733e-05
36 *1725:B *2099:CLK 9.67754e-05
37 *1726:A *2057:CLK 0.000290742
38 *1726:B *2057:CLK 1.34631e-05
39 *1726:B *2099:CLK 4.37451e-05
40 *1726:B *544:40 0.000116154
41 *1727:A1 *2099:CLK 9.84673e-05
42 *1727:A2 *2099:CLK 0.000352381
43 *1728:B1 *2057:CLK 0.000110177
44 *1729:A2 *2057:CLK 5.49544e-05
45 *1760:A2 *544:34 6.74911e-05
46 *1760:A3 *544:34 0.00015134
47 *1788:B1 *2141:A 0
48 *1790:A *544:40 2.31084e-05
49 *2058:RESET_B *2058:CLK 3.08664e-05
50 *2058:RESET_B *544:77 8.38681e-05
51 *2061:D *2100:CLK 9.67754e-05
52 *2086:RESET_B *2141:A 4.65855e-05
53 *2087:D *544:77 0.000105469
54 *291:22 *2057:CLK 5.23735e-05
55 *326:6 *2100:CLK 2.12647e-05
56 *410:8 *544:34 4.29272e-05
57 *410:8 *544:36 6.13609e-05
58 *410:8 *544:40 3.67279e-06
59 *413:31 *544:34 8.50436e-05
60 *413:31 *544:36 9.21263e-05
61 *413:31 *544:40 7.88303e-05
62 *415:12 *544:42 5.49995e-05
63 *535:43 *2141:A 4.93875e-05
*RES
1 *2132:X *544:4 9.3 
2 *544:4 *544:6 2.58929 
3 *544:6 *2089:CLK 10.6571 
4 *544:6 *2141:A 28.6036 
5 *544:4 *544:34 16.2143 
6 *544:34 *544:36 2.25 
7 *544:36 *544:40 9.48214 
8 *544:40 *544:42 1.76786 
9 *544:42 *2057:CLK 33.4055 
10 *544:42 *544:77 13.1071 
11 *544:77 *2058:CLK 9.83571 
12 *544:77 *2087:CLK 9.3 
13 *544:40 *2099:CLK 14.7821 
14 *544:36 *2100:CLK 18.8714 
15 *544:34 *2061:CLK 13.8 
*END

*D_NET *545 0.00757444
*CONN
*I *2029:CLK I *D sky130_fd_sc_hd__dfxtp_2
*I *2014:CLK I *D sky130_fd_sc_hd__dfrtp_2
*I *2012:CLK I *D sky130_fd_sc_hd__dfrtp_2
*I *2146:A I *D sky130_fd_sc_hd__clkbuf_4
*I *2030:CLK I *D sky130_fd_sc_hd__dfxtp_2
*I *2091:CLK I *D sky130_fd_sc_hd__dfrtp_2
*I *2085:CLK I *D sky130_fd_sc_hd__dfrtp_2
*I *2086:CLK I *D sky130_fd_sc_hd__dfrtp_2
*I *2133:X O *D sky130_fd_sc_hd__clkbuf_8
*CAP
1 *2029:CLK 0.000462161
2 *2014:CLK 0
3 *2012:CLK 0.000235754
4 *2146:A 0.00014734
5 *2030:CLK 0.000101294
6 *2091:CLK 0
7 *2085:CLK 0.000435483
8 *2086:CLK 0.000235149
9 *2133:X 0.000149781
10 *545:86 0.000601878
11 *545:75 0.000501499
12 *545:49 0.00051041
13 *545:45 0.000521056
14 *545:29 0.000490427
15 *545:10 0.000390635
16 *545:8 0.000383575
17 *2012:CLK *555:6 6.4176e-05
18 *2012:CLK *555:21 9.17211e-05
19 *2012:CLK *555:55 1.83136e-05
20 *2029:CLK *555:31 0
21 *2085:CLK *2230:A 0.000357555
22 *2085:CLK *735:52 4.01768e-05
23 *2086:CLK *1978:A 7.53208e-05
24 *2086:CLK *2242:A 0
25 *545:8 *1788:B2 2.12087e-05
26 *545:10 *2242:A 0
27 *545:29 *2230:A 1.39841e-05
28 *545:86 *555:31 0
29 *1771:A *2146:A 4.6845e-05
30 *1771:A *545:49 3.37927e-05
31 *1771:B *2146:A 0.000168185
32 *1788:B1 *2086:CLK 0.00013864
33 *1788:B1 *545:10 8.69922e-05
34 *1788:B1 *545:45 7.63288e-05
35 *1887:A1 *545:49 5.49995e-05
36 *1887:A2 *545:45 1.46017e-05
37 *1887:B1 *2030:CLK 2.81855e-05
38 *1887:B1 *2146:A 5.63843e-05
39 *1887:B1 *545:49 2.31395e-05
40 *1888:B *2029:CLK 0
41 *2014:D *2029:CLK 0
42 *2086:D *2086:CLK 5.26091e-05
43 *2091:RESET_B *2085:CLK 4.46854e-05
44 *2141:A *2086:CLK 0.000279035
45 *445:18 *545:8 0.000355287
46 *445:18 *545:45 1.09606e-05
47 *501:14 *2030:CLK 2.51343e-06
48 *506:10 *2029:CLK 0
49 *506:10 *545:49 2.85321e-05
50 *506:10 *545:86 0
51 *535:57 *545:8 6.38991e-05
52 *535:61 *545:8 8.62583e-05
53 *535:63 *545:8 7.2156e-05
54 *535:76 *545:8 1.5129e-06
*RES
1 *2133:X *545:8 18.4429 
2 *545:8 *545:10 2.25 
3 *545:10 *2086:CLK 20.2821 
4 *545:10 *545:29 5.46429 
5 *545:29 *2085:CLK 18.4786 
6 *545:29 *2091:CLK 9.3 
7 *545:8 *545:45 2.85714 
8 *545:45 *545:49 9.14286 
9 *545:49 *2030:CLK 11.0857 
10 *545:49 *2146:A 22.1214 
11 *545:45 *545:75 2.25 
12 *545:75 *2012:CLK 18.4429 
13 *545:75 *545:86 2.55357 
14 *545:86 *2014:CLK 13.8 
15 *545:86 *2029:CLK 21.4071 
*END

*D_NET *546 0.00736978
*CONN
*I *2040:CLK I *D sky130_fd_sc_hd__dfxtp_2
*I *2039:CLK I *D sky130_fd_sc_hd__dfxtp_2
*I *2037:CLK I *D sky130_fd_sc_hd__dfxtp_2
*I *2034:CLK I *D sky130_fd_sc_hd__dfxtp_2
*I *2036:CLK I *D sky130_fd_sc_hd__dfxtp_2
*I *2025:CLK I *D sky130_fd_sc_hd__dfxtp_2
*I *2035:CLK I *D sky130_fd_sc_hd__dfxtp_2
*I *2134:X O *D sky130_fd_sc_hd__clkbuf_8
*CAP
1 *2040:CLK 9.74974e-05
2 *2039:CLK 0.000241498
3 *2037:CLK 0
4 *2034:CLK 0.000241132
5 *2036:CLK 0.000377983
6 *2025:CLK 0.000318235
7 *2035:CLK 9.70486e-05
8 *2134:X 3.27275e-05
9 *546:79 0.000583228
10 *546:16 0.000548279
11 *546:14 0.000673538
12 *546:12 0.000494903
13 *546:10 0.000186037
14 *546:8 0.000371787
15 *2025:CLK *2199:A 0
16 *2034:CLK *1895:A1 0.000140243
17 *2034:CLK *682:42 1.24368e-05
18 *2034:CLK *683:46 8.26886e-06
19 *2035:CLK *2199:A 0
20 *2035:CLK *564:48 5.65955e-05
21 *2036:CLK *1902:A 0.000309475
22 *2036:CLK *2271:A 1.83053e-05
23 *2036:CLK *569:8 6.64283e-05
24 *2040:CLK *2276:A 0
25 *2040:CLK *591:25 7.23529e-05
26 *546:8 *1905:A1 2.59355e-05
27 *546:10 *683:46 1.00332e-05
28 *546:10 *683:57 0.000186418
29 *546:12 *683:46 0.000126598
30 *546:14 *2199:A 0
31 *546:14 *2271:A 9.76123e-05
32 *546:14 *569:27 0
33 *546:14 *683:46 0.000131597
34 *546:16 *2199:A 0
35 *546:16 *683:46 1.41642e-05
36 *546:79 *1911:C 1.21398e-05
37 *546:79 *2274:A 0
38 *546:79 *591:25 0.000109239
39 *546:79 *683:57 0.000197045
40 *1874:A *2025:CLK 5.65955e-05
41 *1895:A2 *2034:CLK 8.70594e-05
42 *1899:B1 *2025:CLK 1.50257e-05
43 *1902:B *2025:CLK 3.66153e-05
44 *1902:B *2035:CLK 6.05161e-06
45 *1905:A2 *2034:CLK 2.77173e-05
46 *2035:D *2025:CLK 0.000496256
47 *2035:D *546:16 5.71124e-05
48 *2036:D *2036:CLK 7.99677e-06
49 *2039:D *2039:CLK 8.93347e-05
50 *2039:D *546:79 0
51 *2040:D *2040:CLK 9.11048e-06
52 *512:51 *2034:CLK 0.000394944
53 *516:14 *2034:CLK 0.000227179
*RES
1 *2134:X *546:8 14.3357 
2 *546:8 *546:10 2.55357 
3 *546:10 *546:12 1.94643 
4 *546:12 *546:14 3.46429 
5 *546:14 *546:16 2.25 
6 *546:16 *2035:CLK 15.8357 
7 *546:16 *2025:CLK 21.4429 
8 *546:14 *2036:CLK 20.9607 
9 *546:12 *2034:CLK 20.6393 
10 *546:10 *2037:CLK 13.8 
11 *546:8 *546:79 5.58929 
12 *546:79 *2039:CLK 17.6393 
13 *546:79 *2040:CLK 15.7464 
*END

*D_NET *547 0.00798202
*CONN
*I *2046:CLK I *D sky130_fd_sc_hd__dfxtp_2
*I *2045:CLK I *D sky130_fd_sc_hd__dfxtp_2
*I *2044:CLK I *D sky130_fd_sc_hd__dfxtp_2
*I *2108:CLK I *D sky130_fd_sc_hd__dfrtp_2
*I *2043:CLK I *D sky130_fd_sc_hd__dfxtp_2
*I *2041:CLK I *D sky130_fd_sc_hd__dfxtp_2
*I *2042:CLK I *D sky130_fd_sc_hd__dfxtp_2
*I *2147:A I *D sky130_fd_sc_hd__clkbuf_4
*I *2135:X O *D sky130_fd_sc_hd__clkbuf_8
*CAP
1 *2046:CLK 0.000118539
2 *2045:CLK 0
3 *2044:CLK 0.000103565
4 *2108:CLK 0.000201442
5 *2043:CLK 0.000715173
6 *2041:CLK 0
7 *2042:CLK 5.02952e-05
8 *2147:A 7.22029e-05
9 *2135:X 4.89381e-05
10 *547:71 0.000293392
11 *547:65 0.000573318
12 *547:52 0.000539284
13 *547:39 0.000875044
14 *547:30 0.000162295
15 *547:19 0.000225216
16 *547:8 0.000220747
17 *2043:CLK *625:20 6.57815e-05
18 *2043:CLK *625:24 5.52302e-05
19 *2043:CLK *670:14 8.6724e-05
20 *2043:CLK *670:23 1.15172e-05
21 *2044:CLK *1925:B1 0.000153295
22 *2046:CLK *1916:A1 0.000131261
23 *2147:A *1906:A1 0.000139907
24 *547:8 *1912:B 6.74911e-05
25 *547:19 *1912:B 0.000104768
26 *547:30 *1912:B 2.14474e-05
27 *547:39 *1914:B1 3.10819e-05
28 *547:52 *1914:B1 4.43126e-05
29 *547:52 *1916:A1 2.37898e-05
30 *547:65 *1916:A1 4.75428e-05
31 *547:71 *1916:A1 2.26644e-05
32 *547:71 *2285:A 5.49995e-05
33 pcRegister[31] *547:71 2.59355e-05
34 *1918:A *547:52 3.51442e-05
35 *1918:A *547:65 0.000466094
36 *1918:A *547:71 0.000110997
37 *1918:B *547:52 1.82896e-05
38 *1922:A *2044:CLK 0.000198828
39 *1931:B *2046:CLK 7.29646e-05
40 *1931:B *547:65 0.000233118
41 *2038:D *547:8 6.74911e-05
42 *2038:D *547:19 0.00010923
43 *2038:D *547:30 0.000100018
44 *2038:D *547:39 0.00010974
45 *2038:D *547:52 2.49225e-05
46 *2042:D *2042:CLK 5.03772e-05
47 *2042:D *547:30 0.000148196
48 *2042:D *547:39 0.000234672
49 *2042:D *547:52 9.07841e-05
50 *2043:D *2043:CLK 8.89117e-05
51 *2045:D *547:71 0.00017237
52 *278:22 *2044:CLK 5.80325e-05
53 *278:22 *547:71 8.35129e-05
54 *323:18 *2108:CLK 0.00019867
55 *521:31 *547:65 2.24574e-05
*RES
1 *2135:X *547:8 15.4429 
2 *547:8 *2147:A 15.1571 
3 *547:8 *547:19 2.85714 
4 *547:19 *2042:CLK 14.7464 
5 *547:19 *547:30 2.55357 
6 *547:30 *2041:CLK 13.8 
7 *547:30 *547:39 3.16071 
8 *547:39 *2043:CLK 25.0321 
9 *547:39 *547:52 2.25 
10 *547:52 *2108:CLK 17.6214 
11 *547:52 *547:65 6.88393 
12 *547:65 *547:71 9.20536 
13 *547:71 *2044:CLK 21.4964 
14 *547:71 *2045:CLK 9.3 
15 *547:65 *2046:CLK 16.1304 
*END

*D_NET *548 0.00676549
*CONN
*I *2120:CLK I *D sky130_fd_sc_hd__dfrtp_2
*I *2148:A I *D sky130_fd_sc_hd__clkbuf_4
*I *2038:CLK I *D sky130_fd_sc_hd__dfxtp_2
*I *2105:CLK I *D sky130_fd_sc_hd__dfrtp_2
*I *2118:CLK I *D sky130_fd_sc_hd__dfrtp_2
*I *2119:CLK I *D sky130_fd_sc_hd__dfrtp_2
*I *2033:CLK I *D sky130_fd_sc_hd__dfxtp_2
*I *2032:CLK I *D sky130_fd_sc_hd__dfxtp_2
*I *2136:X O *D sky130_fd_sc_hd__clkbuf_8
*CAP
1 *2120:CLK 0
2 *2148:A 0
3 *2038:CLK 0
4 *2105:CLK 0.000224841
5 *2118:CLK 0.000774701
6 *2119:CLK 3.49194e-05
7 *2033:CLK 0.000139253
8 *2032:CLK 0.000256584
9 *2136:X 5.83327e-05
10 *548:62 0.000323905
11 *548:58 0.000437104
12 *548:36 0.000852755
13 *548:12 0.000630861
14 *548:10 0.000373448
15 *548:8 0.000433329
16 *548:6 5.83327e-05
17 *2032:CLK *1893:A2 3.17148e-05
18 *2032:CLK *1896:D 0.000112965
19 *2032:CLK *2158:A 0.000104236
20 *2032:CLK *561:8 2.89114e-05
21 *2032:CLK *561:61 0.000176234
22 *2032:CLK *682:8 6.81335e-05
23 *2033:CLK *1890:A 5.33005e-05
24 *2033:CLK *2249:A 5.33005e-05
25 *2118:CLK *1655:C 1.32418e-05
26 *2118:CLK *1828:A 0.000277467
27 *2118:CLK *745:6 3.47702e-06
28 *2119:CLK *1828:A 3.49456e-06
29 *548:12 *1893:A2 0.000141375
30 *548:12 *2158:A 7.83366e-05
31 *548:12 *682:34 0
32 *548:12 *688:60 0
33 *548:36 *1828:A 1.92905e-05
34 *548:58 *1803:A1 9.67754e-05
35 *548:58 *1803:A2 9.99641e-05
36 *1828:B *548:12 0.000197714
37 *1892:B *2033:CLK 7.16452e-05
38 *2032:D *2032:CLK 1.64343e-05
39 *2105:D *2105:CLK 5.83233e-05
40 *2105:RESET_B *2105:CLK 0
41 *2119:D *2118:CLK 5.33005e-05
42 *2119:D *548:12 7.76604e-05
43 *2120:D *548:58 5.60062e-05
44 *2220:A *2105:CLK 0
45 *2220:A *548:58 9.84673e-05
46 *522:16 *2105:CLK 7.15846e-05
47 *535:313 *548:6 7.25873e-06
48 *535:313 *548:58 9.65127e-05
49 *535:351 *2105:CLK 0
*RES
1 *2136:X *548:6 10.2464 
2 *548:6 *548:8 4.5 
3 *548:8 *548:10 1.64286 
4 *548:10 *548:12 5.89286 
5 *548:12 *2032:CLK 20.175 
6 *548:12 *2033:CLK 16.3893 
7 *548:10 *548:36 5.03571 
8 *548:36 *2119:CLK 10.0321 
9 *548:36 *2118:CLK 19.6036 
10 *548:8 *548:58 11.8929 
11 *548:58 *548:62 1.78571 
12 *548:62 *2105:CLK 22.6214 
13 *548:62 *2038:CLK 9.3 
14 *548:58 *2148:A 9.3 
15 *548:6 *2120:CLK 9.3 
*END

*D_NET *549 0.00897267
*CONN
*I *2114:CLK I *D sky130_fd_sc_hd__dfrtp_2
*I *2149:A I *D sky130_fd_sc_hd__clkbuf_4
*I *2122:CLK I *D sky130_fd_sc_hd__dfstp_2
*I *2110:CLK I *D sky130_fd_sc_hd__dfrtp_2
*I *2121:CLK I *D sky130_fd_sc_hd__dfstp_2
*I *2109:CLK I *D sky130_fd_sc_hd__dfrtp_2
*I *2107:CLK I *D sky130_fd_sc_hd__dfrtp_2
*I *2106:CLK I *D sky130_fd_sc_hd__dfrtp_2
*I *2137:X O *D sky130_fd_sc_hd__clkbuf_8
*CAP
1 *2114:CLK 0.000241161
2 *2149:A 0
3 *2122:CLK 0.000116647
4 *2110:CLK 0
5 *2121:CLK 0
6 *2109:CLK 7.68586e-05
7 *2107:CLK 0
8 *2106:CLK 0.000226027
9 *2137:X 0
10 *549:86 0.00039381
11 *549:68 0.00036921
12 *549:55 0.000593153
13 *549:40 0.000763158
14 *549:16 0.000323235
15 *549:12 0.000947045
16 *549:4 0.000656776
17 *2106:CLK *1802:B 3.22325e-05
18 *2106:CLK *2192:A 5.62995e-05
19 *2109:CLK *749:8 8.43535e-06
20 *2114:CLK *1824:A 5.33005e-05
21 *2114:CLK *2006:A 5.71472e-05
22 *2114:CLK *685:28 8.44271e-06
23 *2114:CLK *687:36 0.000186765
24 *2122:CLK *1999:A 0
25 *549:12 *688:60 0.000466964
26 *549:12 *747:25 8.08376e-05
27 *549:40 *1619:A 3.67548e-05
28 *549:40 *1649:A 8.68665e-05
29 *549:40 *1651:C 0
30 *549:40 *2221:A 9.11365e-06
31 *549:40 *685:51 1.08359e-05
32 *549:40 *688:60 0.000570773
33 *549:40 *747:25 4.97121e-06
34 *549:40 *749:21 0
35 *549:55 *1619:A 0.000116161
36 *549:55 *1650:A 0
37 *549:55 *1925:A1 6.01446e-05
38 *549:55 *2121:D 0.000135028
39 *549:55 *670:70 0
40 *549:55 *749:21 0
41 *549:68 *1925:A1 2.70242e-05
42 *549:68 *1999:A 1.17341e-05
43 *549:86 *687:36 9.99853e-05
44 *1650:B *549:68 0
45 *1825:C *2114:CLK 0.000116014
46 *1925:A3 *549:55 0.00015806
47 *1925:A3 *549:68 0.000139816
48 *1928:A_N *2122:CLK 0.000121018
49 *1930:A1 *549:55 0.000140288
50 *2107:D *549:12 5.66157e-05
51 *2107:D *549:16 6.05161e-06
52 *2107:D *549:40 0.000153054
53 *2108:RESET_B *2109:CLK 4.87854e-05
54 *2108:RESET_B *549:40 0.000100823
55 *2109:D *2109:CLK 6.05161e-06
56 *2109:D *549:40 0.000100823
57 *2110:D *549:68 0.000172091
58 *2114:RESET_B *2114:CLK 0.000339262
59 *2121:SET_B *549:55 4.85451e-05
60 *2220:A *2106:CLK 5.38886e-05
61 *522:16 *2106:CLK 0.000175158
62 *535:290 *2114:CLK 2.37369e-05
63 *535:290 *549:12 4.93642e-05
64 *535:290 *549:86 7.589e-05
65 *535:294 *549:12 4.63933e-05
66 *535:296 *549:12 1.40415e-05
*RES
1 *2137:X *549:4 9.3 
2 *549:4 *549:12 14.6429 
3 *549:12 *549:16 5.85714 
4 *549:16 *2106:CLK 23.2821 
5 *549:16 *2107:CLK 9.3 
6 *549:12 *549:40 9.83929 
7 *549:40 *2109:CLK 15.1571 
8 *549:40 *549:55 12.8929 
9 *549:55 *2121:CLK 9.3 
10 *549:55 *549:68 10.1786 
11 *549:68 *2110:CLK 13.8 
12 *549:68 *2122:CLK 16.05 
13 *549:4 *549:86 3 
14 *549:86 *2149:A 9.3 
15 *549:86 *2114:CLK 24.9786 
*END

*D_NET *550 0.00911416
*CONN
*I *2150:A I *D sky130_fd_sc_hd__clkbuf_4
*I *2052:CLK I *D sky130_fd_sc_hd__dfrtp_2
*I *2051:CLK I *D sky130_fd_sc_hd__dfrtp_2
*I *2049:CLK I *D sky130_fd_sc_hd__dfrtp_2
*I *2047:CLK I *D sky130_fd_sc_hd__dfrtp_2
*I *2048:CLK I *D sky130_fd_sc_hd__dfrtp_2
*I *2053:CLK I *D sky130_fd_sc_hd__dfrtp_2
*I *2088:CLK I *D sky130_fd_sc_hd__dfrtp_2
*I *2138:X O *D sky130_fd_sc_hd__clkbuf_8
*CAP
1 *2150:A 0.000209016
2 *2052:CLK 0
3 *2051:CLK 0
4 *2049:CLK 0.0005029
5 *2047:CLK 0.00047932
6 *2048:CLK 1.86542e-05
7 *2053:CLK 0
8 *2088:CLK 8.90359e-05
9 *2138:X 0
10 *550:49 0.00118489
11 *550:36 0.000936637
12 *550:18 0.000117962
13 *550:14 0.000863933
14 *550:12 0.000603858
15 *550:10 0.000712026
16 *550:4 0.000436879
17 *2047:CLK *1754:B2 0.000100797
18 *2049:CLK *2197:A 0.000124749
19 *2150:A *694:118 0.000264748
20 *550:10 *1744:A 2.59355e-05
21 *550:10 *1974:A 0
22 *550:10 *694:118 0.000571205
23 *550:12 *681:32 0
24 *550:12 *728:27 0
25 *550:12 *731:124 0
26 *550:14 *728:27 0
27 *550:14 *731:124 0
28 *550:36 *731:109 2.85321e-05
29 *550:36 *731:124 0.000100074
30 *1762:A *550:10 1.60642e-05
31 *1762:B *550:10 9.84673e-05
32 *1763:B2 *550:10 7.46411e-05
33 *1763:B2 *550:12 9.57064e-05
34 *1768:A1 *2047:CLK 8.34697e-05
35 *1769:A1 *550:10 5.22743e-05
36 *1769:A2 *550:10 2.23393e-05
37 *1769:B1 *550:10 9.11233e-05
38 *1769:B1 *550:12 0.000134748
39 *2049:D *2049:CLK 4.04221e-05
40 *2051:D *550:12 3.79467e-05
41 *2061:RESET_B *550:14 4.29272e-05
42 *2061:RESET_B *550:36 6.35892e-05
43 *2100:RESET_B *550:36 0.000127939
44 *427:32 *2150:A 0.000183847
45 *427:32 *550:10 2.9043e-05
46 *433:20 *2047:CLK 0.000270882
47 *435:12 *550:36 0.000161963
48 *435:12 *550:49 1.62025e-05
49 *436:33 *550:10 9.94157e-05
*RES
1 *2138:X *550:4 9.3 
2 *550:4 *550:10 12.9286 
3 *550:10 *550:12 9.83929 
4 *550:12 *550:14 2.55357 
5 *550:14 *550:18 5.03571 
6 *550:18 *2088:CLK 10.6571 
7 *550:18 *2053:CLK 9.3 
8 *550:14 *550:36 18.3036 
9 *550:36 *2048:CLK 9.72857 
10 *550:36 *550:49 2.73214 
11 *550:49 *2047:CLK 27.8 
12 *550:49 *2049:CLK 25.7821 
13 *550:12 *2051:CLK 13.8 
14 *550:10 *2052:CLK 13.8 
15 *550:4 *2150:A 15.175 
*END

*D_NET *551 0.00994377
*CONN
*I *2055:CLK I *D sky130_fd_sc_hd__dfrtp_2
*I *2082:CLK I *D sky130_fd_sc_hd__dfstp_2
*I *2090:CLK I *D sky130_fd_sc_hd__dfrtp_2
*I *2151:A I *D sky130_fd_sc_hd__clkbuf_4
*I *2060:CLK I *D sky130_fd_sc_hd__dfrtp_2
*I *2031:CLK I *D sky130_fd_sc_hd__dfxtp_2
*I *2059:CLK I *D sky130_fd_sc_hd__dfrtp_2
*I *2084:CLK I *D sky130_fd_sc_hd__dfrtp_2
*I *2139:X O *D sky130_fd_sc_hd__clkbuf_8
*CAP
1 *2055:CLK 0.000155263
2 *2082:CLK 0
3 *2090:CLK 0
4 *2151:A 0
5 *2060:CLK 0
6 *2031:CLK 0.00050711
7 *2059:CLK 0.00039157
8 *2084:CLK 0
9 *2139:X 6.88017e-05
10 *551:78 0.000257595
11 *551:69 0.000564516
12 *551:33 0.00100653
13 *551:24 0.000406829
14 *551:18 0.000941127
15 *551:12 0.000669744
16 *551:10 0.000558579
17 *2031:CLK *1628:B 0.000166983
18 *2031:CLK *1629:B 5.65955e-05
19 *2059:CLK *1616:A 0.000228558
20 *2059:CLK *1632:A1 0.000195917
21 *2059:CLK *1721:A1 0.000112995
22 *2059:CLK *2185:A 5.52238e-05
23 *551:12 *1941:A 5.33005e-05
24 *551:18 *1783:B2 4.84159e-05
25 *551:18 *1941:A 0.000181107
26 *551:18 *727:6 6.3629e-05
27 *551:24 *1973:A 0.00040015
28 *551:24 *555:80 2.38501e-05
29 *551:33 *1628:B 9.25014e-06
30 *551:33 *779:10 0.000146474
31 *551:69 *1941:A 0.000359279
32 *551:69 *1979:A 5.49489e-05
33 *551:69 *690:75 0.000188492
34 *551:69 *694:77 0.000304792
35 *551:78 *694:77 1.00332e-05
36 *1627:C *2059:CLK 1.02936e-05
37 *1630:B2 *2031:CLK 1.83053e-05
38 *1632:A2 *2031:CLK 8.89385e-05
39 *1632:A2 *2059:CLK 1.46576e-05
40 *1632:A2 *551:33 1.76039e-05
41 *1632:B1 *2059:CLK 6.05161e-06
42 *1775:A2 *551:24 0.00022887
43 *1775:B1 *551:24 6.39104e-05
44 *1775:B1 *551:33 1.34406e-05
45 *1783:A2 *551:10 0.000124611
46 *1783:B1 *2059:CLK 8.57023e-05
47 *2052:RESET_B *551:18 5.49995e-05
48 *2060:D *2059:CLK 0.000117631
49 *2084:D *551:33 0
50 *2090:D *2055:CLK 6.16744e-05
51 *2090:D *551:78 9.57064e-05
52 *332:6 *2059:CLK 0.000744458
53 *340:30 *551:24 0
54 *340:30 *551:33 0
55 *342:10 *2031:CLK 9.25014e-06
*RES
1 *2139:X *551:10 19.9429 
2 *551:10 *551:12 0.535714 
3 *551:12 *551:18 11.25 
4 *551:18 *551:24 12.5179 
5 *551:24 *2084:CLK 13.8 
6 *551:24 *551:33 2.55357 
7 *551:33 *2059:CLK 25.8357 
8 *551:33 *2031:CLK 23.1571 
9 *551:18 *2060:CLK 9.3 
10 *551:12 *2151:A 9.3 
11 *551:10 *551:69 14.7679 
12 *551:69 *2090:CLK 13.8 
13 *551:69 *551:78 2.55357 
14 *551:78 *2082:CLK 13.8 
15 *551:78 *2055:CLK 16.5857 
*END

*D_NET *552 0.00781105
*CONN
*I *1736:A2 I *D sky130_fd_sc_hd__o31a_2
*I *1735:A1 I *D sky130_fd_sc_hd__o21a_2
*I *1791:A2 I *D sky130_fd_sc_hd__a21o_2
*I *1737:B I *D sky130_fd_sc_hd__nand2_2
*I *1611:A I *D sky130_fd_sc_hd__inv_2
*I *1748:A I *D sky130_fd_sc_hd__or3b_2
*I *2094:Q O *D sky130_fd_sc_hd__dfstp_2
*CAP
1 *1736:A2 0.000252882
2 *1735:A1 1.43511e-05
3 *1791:A2 0
4 *1737:B 0.000247593
5 *1611:A 0
6 *1748:A 0.000116691
7 *2094:Q 0.000373484
8 *552:62 0.0008895
9 *552:29 0.000322499
10 *552:23 0.00084815
11 *552:12 0.00064115
12 *1735:A1 *571:6 5.50052e-05
13 *1736:A2 *1612:A 0.000217336
14 *1736:A2 *1633:A 9.25014e-06
15 *1736:A2 *1633:C 5.33005e-05
16 *1736:A2 *1734:A 8.91963e-06
17 *1736:A2 *1736:B1 5.33005e-05
18 *1736:A2 *1944:A 0.000145467
19 *1736:A2 *694:67 0.000102977
20 *1737:B *1737:A 7.17235e-05
21 *1737:B *553:8 5.59013e-05
22 *1737:B *553:34 0.000117903
23 *1737:B *692:59 9.90367e-05
24 *552:23 *1748:C_N 0.000119135
25 *552:29 *553:34 0
26 *552:29 *692:59 0.000225307
27 *552:62 *1734:A 1.73789e-05
28 *552:62 *1741:A2 0.000290264
29 *552:62 *1748:C_N 1.98839e-05
30 *552:62 *1791:B1 0.000254123
31 *552:62 *1796:A 9.88136e-05
32 *552:62 *1843:A1 0.000338633
33 *552:62 *553:34 4.59075e-05
34 *552:62 *556:14 1.18064e-05
35 *552:62 *556:20 8.68569e-05
36 *552:62 *692:59 0
37 *1735:A2 *1736:A2 6.9237e-05
38 *1735:A2 *552:62 1.00887e-05
39 *1736:A1 *1736:A2 5.7705e-05
40 *1743:A3 *552:62 3.80497e-05
41 *1749:A2 *552:12 0.000153047
42 *1755:B1 *552:12 5.74562e-05
43 *1765:B *552:12 7.80714e-06
44 *1793:B *552:62 0.000229021
45 *1797:C1 *552:12 0.000293422
46 *2049:RESET_B *1737:B 9.41642e-05
47 *2050:CLK *1735:A1 5.33005e-05
48 *2056:RESET_B *552:62 4.54407e-05
49 *2175:A *552:62 0
50 *13:12 *1737:B 0
51 *13:12 *552:29 0.000144197
52 *426:22 *552:62 0.000295844
53 *430:8 *1748:A 2.51343e-06
54 *537:28 *1737:B 5.52302e-05
*RES
1 *2094:Q *552:12 25.0679 
2 *552:12 *1748:A 11.0857 
3 *552:12 *552:23 2.58929 
4 *552:23 *552:29 12.1607 
5 *552:29 *1611:A 9.3 
6 *552:29 *1737:B 24.0857 
7 *552:23 *1791:A2 9.3 
8 *552:23 *552:62 21.6071 
9 *552:62 *1735:A1 14.3357 
10 *552:62 *1736:A2 20.8714 
*END

*D_NET *553 0.00302117
*CONN
*I *1737:A I *D sky130_fd_sc_hd__nand2_2
*I *1791:A1 I *D sky130_fd_sc_hd__a21o_2
*I *1748:C_N I *D sky130_fd_sc_hd__or3b_2
*I *2235:A I *D sky130_fd_sc_hd__dlygate4sd3_1
*I *1739:A I *D sky130_fd_sc_hd__nor2_2
*I *2049:Q O *D sky130_fd_sc_hd__dfrtp_2
*CAP
1 *1737:A 0.000219584
2 *1791:A1 2.23854e-05
3 *1748:C_N 0.000135085
4 *2235:A 2.9238e-05
5 *1739:A 0.000173906
6 *2049:Q 0
7 *553:34 0.000397121
8 *553:8 0.000324039
9 *553:6 0.000360546
10 *553:4 0.000219584
11 *2235:A *701:24 5.33005e-05
12 *553:34 *1791:B1 5.52238e-05
13 *553:34 *692:42 0
14 *553:34 *692:59 6.35892e-05
15 *1737:B *1737:A 7.17235e-05
16 *1737:B *553:8 5.59013e-05
17 *1737:B *553:34 0.000117903
18 *2049:RESET_B *1737:A 5.33005e-05
19 *2049:RESET_B *1739:A 0.000197516
20 *2049:RESET_B *553:8 0.000220783
21 *2093:RESET_B *553:34 0
22 *13:12 *553:8 0
23 *537:28 *1737:A 6.55123e-05
24 *552:23 *1748:C_N 0.000119135
25 *552:29 *553:34 0
26 *552:62 *1748:C_N 1.98839e-05
27 *552:62 *553:34 4.59075e-05
*RES
1 *2049:Q *553:4 9.3 
2 *553:4 *553:6 4.5 
3 *553:6 *553:8 3.16071 
4 *553:8 *1739:A 16.8893 
5 *553:8 *2235:A 14.3357 
6 *553:6 *553:34 9.92857 
7 *553:34 *1748:C_N 11.8893 
8 *553:34 *1791:A1 9.72857 
9 *553:4 *1737:A 12.7464 
*END

*D_NET *554 0.00363022
*CONN
*I *2198:A I *D sky130_fd_sc_hd__dlygate4sd3_1
*I *1754:B2 I *D sky130_fd_sc_hd__a221o_2
*I *1723:A1 I *D sky130_fd_sc_hd__a21oi_2
*I *2047:Q O *D sky130_fd_sc_hd__dfrtp_2
*CAP
1 *2198:A 0
2 *1754:B2 0.000312095
3 *1723:A1 0.000416225
4 *2047:Q 0.000175036
5 *554:16 0.000967719
6 *554:12 0.000414436
7 *1723:A1 *1751:A_N 5.71472e-05
8 *1723:A1 *1751:B 0.000289301
9 *1723:A1 *1768:B1 0.000230475
10 *1754:B2 *557:22 0.00014135
11 *1754:B2 *689:17 7.65099e-05
12 *554:16 *1768:B1 0.000141734
13 *1768:A1 *1723:A1 7.32955e-05
14 *1768:A1 *1754:B2 0.000171378
15 *2047:CLK *1754:B2 0.000100797
16 *2047:RESET_B *1754:B2 4.93875e-05
17 *411:8 *1723:A1 1.33343e-05
*RES
1 *2047:Q *554:12 21.1929 
2 *554:12 *554:16 4.25 
3 *554:16 *1723:A1 18.0679 
4 *554:16 *1754:B2 25.858 
5 *554:12 *2198:A 9.3 
*END

*D_NET *555 0.0110545
*CONN
*I *1782:B I *D sky130_fd_sc_hd__nand2b_2
*I *1712:A1 I *D sky130_fd_sc_hd__a31o_2
*I *1774:A2 I *D sky130_fd_sc_hd__a21boi_2
*I *1719:B I *D sky130_fd_sc_hd__and3_2
*I *1775:A1 I *D sky130_fd_sc_hd__a21oi_2
*I *1628:A I *D sky130_fd_sc_hd__nand3_2
*I *1627:A I *D sky130_fd_sc_hd__and3_2
*I *1773:A I *D sky130_fd_sc_hd__and2_2
*I *2012:Q O *D sky130_fd_sc_hd__dfrtp_2
*CAP
1 *1782:B 0.000164785
2 *1712:A1 0.000552607
3 *1774:A2 5.00509e-05
4 *1719:B 0.000252676
5 *1775:A1 1.36298e-05
6 *1628:A 0.000278065
7 *1627:A 6.89561e-05
8 *1773:A 0.000196439
9 *2012:Q 0.000393647
10 *555:86 0.00034683
11 *555:84 0.000860369
12 *555:80 0.00108948
13 *555:55 0.00100646
14 *555:31 0.000691567
15 *555:21 0.000871632
16 *555:6 0.000785375
17 *1628:A *1628:B 9.43406e-05
18 *1628:A *779:10 4.13122e-06
19 *1712:A1 *1712:A3 5.49489e-05
20 *1719:B *1719:A 7.76952e-05
21 *1719:B *1719:C 2.15245e-05
22 *1719:B *1720:B1_N 7.60306e-05
23 *1719:B *732:22 5.52238e-05
24 *1773:A *1788:B2 0
25 *1774:A2 *579:12 5.33005e-05
26 *1775:A1 *1973:A 1.02301e-05
27 *1775:A1 *681:50 7.69206e-06
28 *1782:B *1980:A 0.000140933
29 *555:31 *1627:B 9.83388e-05
30 *555:55 *1933:A 9.67434e-05
31 *555:55 *1973:A 3.05878e-05
32 *555:55 *681:50 5.38444e-06
33 *555:80 *1973:A 1.62025e-05
34 *555:80 *1978:A 0
35 *555:80 *1980:A 0.000140933
36 *555:80 *681:50 0
37 *555:80 *735:10 0
38 *555:80 *735:52 0.000125243
39 *555:80 *735:63 0.000142888
40 *555:84 *1758:A2 0
41 *555:84 *1980:A 0.000168184
42 *555:86 *1720:B1_N 1.76135e-05
43 *555:86 *1758:A2 0
44 *555:86 *1980:A 1.78353e-05
45 *555:86 *732:22 0
46 *1629:A *1628:A 7.24209e-05
47 *1632:B1 *555:31 7.0106e-05
48 *1760:A1 *555:80 0.000215528
49 *1760:A2 *555:80 5.7616e-05
50 *1760:A2 *555:84 0
51 *1760:B1 *555:80 6.44496e-05
52 *1775:A2 *555:80 5.49995e-05
53 *1775:B1 *1628:A 9.1407e-06
54 *1776:B *1627:A 1.41642e-05
55 *1776:B *555:31 0.000250767
56 *1776:B *555:55 2.12065e-05
57 *1788:B1 *1773:A 9.58181e-05
58 *1831:A *1712:A1 1.40415e-05
59 *1831:A *1719:B 6.51946e-05
60 *1887:A1 *1773:A 9.84729e-05
61 *2012:CLK *555:6 6.4176e-05
62 *2012:CLK *555:21 9.17211e-05
63 *2012:CLK *555:55 1.83136e-05
64 *2012:D *1773:A 3.69047e-06
65 *2012:D *555:31 1.6271e-05
66 *2012:RESET_B *555:6 5.01643e-05
67 *2029:CLK *555:31 0
68 *2085:D *555:80 0.000103775
69 *2091:RESET_B *555:80 0
70 *2183:A *1712:A1 1.15172e-05
71 *2183:A *1774:A2 0.000137983
72 *345:12 *1627:A 5.79582e-06
73 *345:12 *555:31 5.33614e-05
74 *413:31 *1712:A1 0.000199286
75 *413:31 *1719:B 7.79781e-06
76 *441:8 *1782:B 1.21258e-05
77 *445:18 *1773:A 7.21819e-05
78 *449:12 *555:80 0
79 *544:34 *555:84 0
80 *545:86 *555:31 0
81 *551:24 *555:80 2.38501e-05
*RES
1 *2012:Q *555:6 14.3536 
2 *555:6 *1773:A 22.0143 
3 *555:6 *555:21 2.58929 
4 *555:21 *555:31 21.1607 
5 *555:31 *1627:A 14.5321 
6 *555:31 *1628:A 18.1214 
7 *555:21 *555:55 4.66071 
8 *555:55 *1775:A1 9.72857 
9 *555:55 *555:80 23.1786 
10 *555:80 *555:84 10.3929 
11 *555:84 *555:86 1.03571 
12 *555:86 *1719:B 19.175 
13 *555:86 *1774:A2 15.1571 
14 *555:84 *1712:A1 20.9071 
15 *555:80 *1782:B 11.8 
*END

*D_NET *556 0.0117554
*CONN
*I *1637:A I *D sky130_fd_sc_hd__and2_2
*I *1638:A I *D sky130_fd_sc_hd__nand2_2
*I *1717:A I *D sky130_fd_sc_hd__nand3_2
*I *1793:A I *D sky130_fd_sc_hd__nand2_2
*I *1734:A I *D sky130_fd_sc_hd__nand2_2
*I *1843:A2 I *D sky130_fd_sc_hd__a21boi_2
*I *1796:B I *D sky130_fd_sc_hd__and3_2
*I *1766:B1_N I *D sky130_fd_sc_hd__a21boi_2
*I *1797:A1 I *D sky130_fd_sc_hd__a211o_2
*I *2050:Q O *D sky130_fd_sc_hd__dfrtp_2
*CAP
1 *1637:A 0.000139601
2 *1638:A 2.93647e-05
3 *1717:A 0
4 *1793:A 0.000204218
5 *1734:A 6.72617e-05
6 *1843:A2 0.000717043
7 *1796:B 0
8 *1766:B1_N 0.000389605
9 *1797:A1 1.53865e-05
10 *2050:Q 0.000768638
11 *556:106 0.000292618
12 *556:88 0.000604666
13 *556:82 0.00122311
14 *556:31 0.00061659
15 *556:20 0.000412522
16 *556:14 0.000297483
17 *556:12 0.000945202
18 *1734:A *1734:B 0.000210469
19 *1734:A *1843:A1 9.15842e-06
20 *1766:B1_N *1796:C 7.83659e-05
21 *1793:A *1717:B 5.46298e-05
22 *1793:A *1718:A1 9.90431e-05
23 *1793:A *2093:D 5.30637e-06
24 *556:12 *1735:B1 5.33005e-05
25 *556:12 *692:78 9.41642e-05
26 *556:14 *1734:B 0.000351747
27 *556:14 *1843:A1 0.000337103
28 *556:20 *1734:B 5.59013e-05
29 *556:20 *1796:A 2.14757e-05
30 *556:20 *692:78 6.07232e-05
31 *556:31 *1796:A 2.07382e-05
32 *556:88 *1717:B 5.52238e-05
33 *556:88 *1718:A1 2.44318e-05
34 *556:88 *2162:A 0
35 *556:88 *694:27 0
36 *556:88 *694:38 0
37 *556:106 *694:38 0
38 *556:106 *694:53 0
39 *1637:B *1637:A 0.000189686
40 *1637:B *556:106 1.00887e-05
41 *1735:A2 *1734:A 0.000150043
42 *1736:A2 *1734:A 8.91963e-06
43 *1766:A1 *1766:B1_N 2.2351e-05
44 *1766:A2 *1766:B1_N 0.000325886
45 *1793:B *1793:A 3.99614e-06
46 *1794:A2 *1793:A 9.40156e-05
47 *1794:A2 *556:88 0.00050705
48 *1794:B1 *556:88 0
49 *1797:A2 *556:20 0.000185643
50 *1797:B1 *1797:A1 1.97695e-05
51 *1797:B1 *556:31 0.000100625
52 *2050:CLK *556:12 5.66426e-05
53 *2050:D *1766:B1_N 9.77423e-05
54 *2050:D *556:12 0.000254414
55 *2083:CLK *1637:A 7.22574e-05
56 *2095:RESET_B *556:82 0.00038764
57 *2098:D *556:88 0.000103253
58 *2152:A *556:88 0
59 *2175:A *1843:A2 3.28686e-05
60 *2175:A *556:82 0.000269428
61 *13:12 *1766:B1_N 0
62 *349:19 *556:88 0.000101545
63 *349:19 *556:106 0.000237866
64 *351:10 *1637:A 0.000124749
65 *351:10 *1638:A 1.84865e-05
66 *444:8 *1766:B1_N 9.25014e-06
67 *552:62 *1734:A 1.73789e-05
68 *552:62 *556:14 1.18064e-05
69 *552:62 *556:20 8.68569e-05
*RES
1 *2050:Q *556:12 24.3357 
2 *556:12 *556:14 4.67857 
3 *556:14 *556:20 8.92857 
4 *556:20 *1797:A1 9.72857 
5 *556:20 *556:31 3.32143 
6 *556:31 *1766:B1_N 25.5321 
7 *556:31 *1796:B 9.3 
8 *556:14 *1843:A2 14.1304 
9 *556:12 *1734:A 16.6571 
10 *1843:A2 *556:82 24.6393 
11 *556:82 *556:88 13.9643 
12 *556:88 *1793:A 13.9786 
13 *556:88 *1717:A 9.3 
14 *556:82 *556:106 3.16071 
15 *556:106 *1638:A 14.3357 
16 *556:106 *1637:A 17.7107 
*END

*D_NET *557 0.0041275
*CONN
*I *2197:A I *D sky130_fd_sc_hd__dlygate4sd3_1
*I *1754:A1 I *D sky130_fd_sc_hd__a221o_2
*I *1724:A1 I *D sky130_fd_sc_hd__a21oi_2
*I *2048:Q O *D sky130_fd_sc_hd__dfrtp_2
*CAP
1 *2197:A 0.000334094
2 *1754:A1 0
3 *1724:A1 0.000425187
4 *2048:Q 0.000268155
5 *557:22 0.000778845
6 *557:14 0.000955907
7 *1724:A1 *1724:B1 7.57318e-05
8 *1724:A1 *689:17 0.000174958
9 *2197:A *701:24 9.56233e-05
10 *557:14 *1937:A 1.85025e-05
11 *557:14 *2258:A 4.17661e-06
12 *557:14 *689:6 5.49544e-05
13 *557:14 *689:44 7.72042e-05
14 *557:22 *689:6 0.000185197
15 *557:22 *689:17 7.15036e-05
16 *1752:A2 *1724:A1 2.17339e-05
17 *1754:B2 *557:22 0.00014135
18 *2047:RESET_B *557:22 5.49544e-05
19 *2048:RESET_B *557:14 8.77688e-05
20 *2049:CLK *2197:A 0.000124749
21 *412:8 *1724:A1 1.32293e-05
22 *434:12 *1724:A1 0.000163675
*RES
1 *2048:Q *557:14 23.675 
2 *557:14 *557:22 6.03571 
3 *557:22 *1724:A1 26.2464 
4 *557:22 *1754:A1 9.3 
5 *557:14 *2197:A 25.3536 
*END

*D_NET *558 0.0016942
*CONN
*I *2168:A I *D sky130_fd_sc_hd__clkdlybuf4s25_1
*I *2253:X O *D sky130_fd_sc_hd__clkdlybuf4s25_1
*CAP
1 *2168:A 0.000416977
2 *2253:X 0.000416977
3 *2168:A *2163:A 0
4 *2168:A *2259:A 0.000217599
5 *2168:A *691:21 0.000148542
6 *2168:A *691:36 5.52302e-05
7 *2168:A *701:16 3.69047e-06
8 mem_addr[5] *2168:A 0.000435189
*RES
1 *2253:X *2168:A 37.4036 
*END

*D_NET *559 0.00628414
*CONN
*I *2267:A I *D sky130_fd_sc_hd__clkdlybuf4s25_1
*I *1609:A I *D sky130_fd_sc_hd__inv_2
*I *1884:A I *D sky130_fd_sc_hd__and3_2
*I *2030:Q O *D sky130_fd_sc_hd__dfxtp_2
*CAP
1 *2267:A 0.00106332
2 *1609:A 0.000429186
3 *1884:A 0
4 *2030:Q 0
5 *559:16 0.000561876
6 *559:6 0.00119601
7 *1609:A *1871:A 3.69047e-06
8 *1609:A *1871:B 0.000139907
9 *1609:A *1879:B 0.000142819
10 *1609:A *1881:A 0.000175519
11 *1609:A *2240:A 1.02504e-05
12 *2267:A *1879:A 2.81056e-05
13 *2267:A *1888:A 2.14658e-05
14 *2267:A *2180:A 5.49489e-05
15 *2267:A *679:112 0.000285744
16 *2267:A *686:27 0.000439187
17 *2267:A *703:10 0
18 *2267:A *704:10 4.66326e-05
19 *2267:A *704:12 9.65379e-05
20 *559:16 *1879:A 1.27905e-05
21 *1871:C *1609:A 2.72967e-05
22 *1872:B *2267:A 0.000182179
23 *1872:B *559:16 7.58841e-05
24 *1878:C *2267:A 4.10843e-05
25 *1880:B *559:16 4.27373e-05
26 *1883:A2 *2267:A 9.24299e-05
27 *1884:B *2267:A 1.00887e-05
28 *1884:B *559:16 7.89362e-05
29 *1884:C *1609:A 8.46829e-05
30 *1884:C *559:16 5.71472e-05
31 *1886:B *1609:A 0.000190397
32 *2025:D *2267:A 0.000102549
33 *2028:D *2267:A 0.000139631
34 *447:12 *1609:A 9.41642e-05
35 *447:18 *1609:A 3.71841e-05
36 *491:23 *559:16 4.27842e-06
37 *492:43 *1609:A 2.75059e-05
38 *495:26 *1609:A 4.00679e-05
39 *499:12 *2267:A 5.03772e-05
40 *504:6 *1609:A 5.33005e-05
41 *535:76 *1609:A 6.43063e-05
42 *535:86 *1609:A 2.85234e-05
43 *535:86 *559:16 2.85321e-05
44 *535:106 *559:16 2.28776e-05
*RES
1 *2030:Q *559:6 13.8 
2 *559:6 *559:16 7.94643 
3 *559:16 *1884:A 9.3 
4 *559:16 *1609:A 37.6929 
5 *559:6 *2267:A 35.6036 
*END

*D_NET *560 0.00510891
*CONN
*I *1891:B I *D sky130_fd_sc_hd__and3_2
*I *2268:A I *D sky130_fd_sc_hd__clkdlybuf4s25_1
*I *2193:A I *D sky130_fd_sc_hd__dlygate4sd3_1
*I *1608:A I *D sky130_fd_sc_hd__inv_2
*I *2031:Q O *D sky130_fd_sc_hd__dfxtp_2
*CAP
1 *1891:B 0
2 *2268:A 0.000802474
3 *2193:A 6.20224e-05
4 *1608:A 0.000171646
5 *2031:Q 4.91556e-05
6 *560:34 0.00102597
7 *560:19 0.000403169
8 *560:8 0.000338454
9 *1608:A *672:10 7.83587e-05
10 *2193:A *1888:A 0.000139907
11 *2268:A *1898:A1 0.000443654
12 *2268:A *2158:A 0.000312209
13 *2268:A *2233:A 0.00018597
14 *2268:A *561:37 0.000175512
15 *2268:A *672:10 0
16 *560:19 *1889:A1 2.56694e-05
17 *560:19 *1891:A 0
18 *560:19 *672:10 0.000246064
19 *560:34 *1891:A 0
20 *560:34 *561:16 0.000274288
21 *560:34 *561:37 0
22 *560:34 *672:10 7.6644e-05
23 *1881:B *1608:A 5.80706e-06
24 *1888:B *1608:A 2.28159e-05
25 *1888:B *2193:A 1.33343e-05
26 *1891:C *560:19 0
27 *1892:B *2268:A 3.34295e-05
28 *1892:C *2268:A 9.71197e-05
29 *1898:A2 *2268:A 4.13595e-05
30 *2031:D *560:8 1.58163e-05
31 *504:19 *1608:A 0
32 *504:19 *560:19 0
33 *506:10 *1608:A 6.80593e-05
*RES
1 *2031:Q *560:8 14.3357 
2 *560:8 *1608:A 17.8714 
3 *560:8 *560:19 3.16071 
4 *560:19 *2193:A 15.1571 
5 *560:19 *560:34 8.125 
6 *560:34 *2268:A 34.6571 
7 *560:34 *1891:B 9.3 
*END

*D_NET *561 0.00861929
*CONN
*I *1893:A2 I *D sky130_fd_sc_hd__a31o_2
*I *2249:A I *D sky130_fd_sc_hd__dlygate4sd3_1
*I *1896:C I *D sky130_fd_sc_hd__and4_2
*I *2269:A I *D sky130_fd_sc_hd__clkdlybuf4s25_1
*I *1891:A I *D sky130_fd_sc_hd__and3_2
*I *2032:Q O *D sky130_fd_sc_hd__dfxtp_2
*CAP
1 *1893:A2 0.000100085
2 *2249:A 0.000245937
3 *1896:C 0
4 *2269:A 0.000931337
5 *1891:A 0.000134353
6 *2032:Q 0.000259398
7 *561:61 0.000406025
8 *561:37 0.00136023
9 *561:16 0.000839099
10 *561:8 0.000595253
11 *1891:A *1888:A 7.77751e-05
12 *1891:A *2200:A 0
13 *1893:A2 *1890:B 4.73656e-05
14 *1893:A2 *1893:A3 4.16021e-05
15 *2249:A *1890:A 2.28598e-05
16 *2269:A *1896:B 9.90431e-05
17 *2269:A *1896:D 3.18676e-05
18 *2269:A *2270:A 0.00121248
19 *561:16 *1888:A 0.000443654
20 *561:16 *1890:B 0.000125731
21 *561:16 *2158:A 3.34672e-05
22 *561:16 *672:10 8.98994e-05
23 *561:37 *1896:B 4.38128e-05
24 *561:37 *1896:D 0.000181723
25 *561:61 *1890:B 0.000216771
26 *561:61 *2158:A 1.69115e-05
27 pcRegister[17] *2269:A 0
28 *1892:B *561:37 4.33438e-05
29 *2032:CLK *1893:A2 3.17148e-05
30 *2032:CLK *561:8 2.89114e-05
31 *2032:CLK *561:61 0.000176234
32 *2033:CLK *2249:A 5.33005e-05
33 *2268:A *561:37 0.000175512
34 *509:10 *561:37 7.92879e-05
35 *509:21 *561:37 5.86416e-05
36 *548:12 *1893:A2 0.000141375
37 *560:19 *1891:A 0
38 *560:34 *1891:A 0
39 *560:34 *561:16 0.000274288
40 *560:34 *561:37 0
*RES
1 *2032:Q *561:8 16.8 
2 *561:8 *561:16 17 
3 *561:16 *1891:A 16.1929 
4 *561:16 *561:37 13.0536 
5 *561:37 *2269:A 32.9429 
6 *561:37 *1896:C 9.3 
7 *561:8 *561:61 2.85714 
8 *561:61 *2249:A 17.6393 
9 *561:61 *1893:A2 16.5857 
*END

*D_NET *562 0.00637364
*CONN
*I *1895:A1 I *D sky130_fd_sc_hd__a21oi_2
*I *2225:A I *D sky130_fd_sc_hd__dlygate4sd3_1
*I *1893:A1 I *D sky130_fd_sc_hd__a31o_2
*I *2270:A I *D sky130_fd_sc_hd__clkdlybuf4s25_1
*I *1896:B I *D sky130_fd_sc_hd__and4_2
*I *2033:Q O *D sky130_fd_sc_hd__dfxtp_2
*CAP
1 *1895:A1 0.00015943
2 *2225:A 0.00015943
3 *1893:A1 0.000544667
4 *2270:A 0.000322475
5 *1896:B 0.000145335
6 *2033:Q 8.41499e-05
7 *562:40 0.000710176
8 *562:10 0.00059134
9 *562:8 0.000373188
10 *1893:A1 *1893:A3 5.52302e-05
11 *1893:A1 *1894:A1 5.71472e-05
12 *1893:A1 *2271:A 0.00014285
13 *1893:A1 *563:12 2.77289e-05
14 *1895:A1 *1895:B1 9.15842e-06
15 *1895:A1 *2271:A 0.000137983
16 *1895:A1 *682:44 9.31192e-05
17 *1896:B *564:8 0
18 *1896:B *564:12 0
19 *2270:A *1896:D 0
20 *2270:A *1900:B1 0.000226513
21 *2270:A *2199:A 5.50313e-05
22 *562:8 *2256:A 3.69047e-06
23 *562:10 *564:8 0
24 *562:40 *2256:A 5.74562e-05
25 *1894:A2 *1893:A1 5.52238e-05
26 *1894:B1_N *1893:A1 0.00014636
27 *1895:A2 *1895:A1 0.000140933
28 *1897:B *1895:A1 0.000150625
29 *1902:B *2270:A 9.00347e-05
30 *2034:CLK *1895:A1 0.000140243
31 *2034:D *1895:A1 3.14048e-05
32 *2034:D *562:40 5.83304e-05
33 *2269:A *1896:B 9.90431e-05
34 *2269:A *2270:A 0.00121248
35 *509:21 *562:10 0
36 *509:21 *562:40 0
37 *512:6 *2270:A 8.69268e-05
38 *512:8 *2270:A 9.90878e-05
39 *512:14 *2270:A 4.88637e-05
40 *512:38 *562:40 0
41 *512:51 *1895:A1 1.41652e-05
42 *561:37 *1896:B 4.38128e-05
*RES
1 *2033:Q *562:8 14.7464 
2 *562:8 *562:10 1.94643 
3 *562:10 *1896:B 15.8893 
4 *562:10 *2270:A 26.4071 
5 *562:8 *562:40 7.66071 
6 *562:40 *1893:A1 18.6214 
7 *562:40 *2225:A 9.3 
8 *2225:A *1895:A1 32.8679 
*END

*D_NET *563 0.00546342
*CONN
*I *2195:A I *D sky130_fd_sc_hd__dlygate4sd3_1
*I *1896:A I *D sky130_fd_sc_hd__and4_2
*I *2271:A I *D sky130_fd_sc_hd__clkdlybuf4s25_1
*I *2034:Q O *D sky130_fd_sc_hd__dfxtp_2
*CAP
1 *2195:A 0.000269302
2 *1896:A 0.00027677
3 *2271:A 0.00109044
4 *2034:Q 0
5 *563:12 0.00148659
6 *563:6 0.000388681
7 *1896:A *1896:D 0.000273269
8 *1896:A *682:21 0
9 *1896:A *682:34 0
10 *2195:A *682:34 0
11 *2271:A *1894:A1 3.18676e-05
12 *2271:A *1902:A 2.15245e-05
13 *2271:A *1903:C 6.71327e-05
14 *2271:A *2273:A 1.59373e-05
15 *2271:A *569:8 9.60939e-05
16 *2271:A *569:31 5.62285e-05
17 *2271:A *683:25 5.05484e-05
18 *563:12 *682:34 0
19 *1892:B *1896:A 3.57163e-05
20 *1893:A1 *2271:A 0.00014285
21 *1893:A1 *563:12 2.77289e-05
22 *1894:A2 *2271:A 2.89016e-05
23 *1894:B1_N *563:12 7.43578e-06
24 *1895:A1 *2271:A 0.000137983
25 *1895:A2 *1896:A 5.66157e-05
26 *1895:A2 *563:12 3.06406e-05
27 *1902:C *2271:A 0
28 *1905:A2 *2271:A 0.000226867
29 *2033:D *1896:A 0.000104974
30 *2036:CLK *2271:A 1.83053e-05
31 *2105:RESET_B *2195:A 2.29031e-05
32 *509:21 *1896:A 0.00034321
33 *535:317 *2195:A 2.85234e-05
34 *535:326 *2195:A 2.87725e-05
35 *546:14 *2271:A 9.76123e-05
*RES
1 *2034:Q *563:6 13.8 
2 *563:6 *563:12 6.78571 
3 *563:12 *2271:A 37.1929 
4 *563:12 *1896:A 25.8714 
5 *563:6 *2195:A 18.4429 
*END

*D_NET *564 0.00582853
*CONN
*I *2272:A I *D sky130_fd_sc_hd__clkdlybuf4s25_1
*I *1903:C I *D sky130_fd_sc_hd__and4_2
*I *1901:B I *D sky130_fd_sc_hd__and3_2
*I *1900:A1 I *D sky130_fd_sc_hd__a21oi_2
*I *2233:A I *D sky130_fd_sc_hd__dlygate4sd3_1
*I *1898:A1 I *D sky130_fd_sc_hd__a21oi_2
*I *2035:Q O *D sky130_fd_sc_hd__dfxtp_2
*CAP
1 *2272:A 0.000330176
2 *1903:C 8.31331e-05
3 *1901:B 0
4 *1900:A1 0
5 *2233:A 5.97503e-05
6 *1898:A1 0.000104313
7 *2035:Q 0.000847461
8 *564:57 0.000445297
9 *564:48 0.000791462
10 *564:12 0.000330836
11 *564:8 0.00025476
12 *1898:A1 *1899:A1 7.15962e-05
13 *1903:C *1903:B 0.0002165
14 *1903:C *569:31 5.33005e-05
15 *2272:A *1903:A 4.6361e-05
16 *2272:A *569:27 3.12359e-05
17 *2272:A *580:21 0.000120888
18 *564:12 *1898:B1 0
19 *564:48 *1902:A 0.000101233
20 *564:48 *2199:A 0.000103372
21 *564:48 *569:27 6.49408e-05
22 *564:48 *683:10 0.000271352
23 *564:57 *569:27 5.41164e-05
24 pcRegister[20] *2272:A 0
25 pcRegister[20] *564:57 0
26 *1896:B *564:8 0
27 *1896:B *564:12 0
28 *1898:A2 *1898:A1 9.90367e-05
29 *1899:B1 *1898:A1 2.28598e-05
30 *1901:C *1903:C 1.59373e-05
31 *1902:B *564:48 0.000113063
32 *1902:C *564:48 8.88831e-05
33 *1905:A2 *1903:C 0.000228514
34 *2035:CLK *564:48 5.65955e-05
35 *2035:D *564:48 5.7298e-05
36 *2268:A *1898:A1 0.000443654
37 *2268:A *2233:A 0.00018597
38 *2271:A *1903:C 6.71327e-05
39 *512:38 *564:8 6.75007e-05
40 *562:10 *564:8 0
*RES
1 *2035:Q *564:8 15.7464 
2 *564:8 *564:12 6.75 
3 *564:12 *1898:A1 13.5321 
4 *564:12 *2233:A 11.0679 
5 *564:8 *1900:A1 13.8 
6 *2035:Q *564:48 26.4607 
7 *564:48 *1901:B 13.8 
8 *564:48 *564:57 0.732143 
9 *564:57 *1903:C 17.2286 
10 *564:57 *2272:A 20.6929 
*END

*D_NET *565 0.0018683
*CONN
*I *1842:A2 I *D sky130_fd_sc_hd__a21oi_2
*I *1736:B1 I *D sky130_fd_sc_hd__o31a_2
*I *2169:X O *D sky130_fd_sc_hd__dlygate4sd3_1
*CAP
1 *1842:A2 0
2 *1736:B1 0.000211648
3 *2169:X 0.000232799
4 *565:10 0.000444447
5 *1736:B1 *1633:A 5.52238e-05
6 *1736:B1 *1633:C 5.51918e-05
7 *1736:B1 *1986:A 5.81511e-05
8 *565:10 *1986:A 5.07201e-05
9 *565:10 *2169:A 8.86413e-05
10 *565:10 *725:6 2.89016e-05
11 *1736:A1 *1736:B1 0.000472416
12 *1736:A1 *565:10 3.19564e-05
13 *1736:A2 *1736:B1 5.33005e-05
14 *346:8 *1736:B1 5.33334e-05
15 *538:65 *565:10 3.15645e-05
*RES
1 *2169:X *565:10 17.925 
2 *565:10 *1736:B1 19.8714 
3 *565:10 *1842:A2 13.8 
*END

*D_NET *566 0.000241498
*CONN
*I *2097:D I *D sky130_fd_sc_hd__dfrtp_2
*I *2170:X O *D sky130_fd_sc_hd__dlygate4sd3_1
*CAP
1 *2097:D 0.000104815
2 *2170:X 0.000104815
3 *2097:CLK *2097:D 3.18676e-05
*RES
1 *2170:X *2097:D 20.3679 
*END

*D_NET *567 0.000961785
*CONN
*I *1905:A1 I *D sky130_fd_sc_hd__o21a_2
*I *2171:X O *D sky130_fd_sc_hd__dlygate4sd3_1
*CAP
1 *1905:A1 0.000432771
2 *2171:X 0.000432771
3 *1905:A2 *1905:A1 1.00887e-05
4 *516:14 *1905:A1 9.15842e-06
5 *535:337 *1905:A1 5.1061e-05
6 *546:8 *1905:A1 2.59355e-05
*RES
1 *2171:X *1905:A1 33.3679 
*END

*D_NET *568 0.0033564
*CONN
*I *1855:A1 I *D sky130_fd_sc_hd__o21a_2
*I *2172:X O *D sky130_fd_sc_hd__dlygate4sd3_1
*CAP
1 *1855:A1 0.0010667
2 *2172:X 0.0010667
3 *1855:A1 *2294:A 0.000249004
4 *1855:A1 *678:16 9.82049e-05
5 *1851:C *1855:A1 0.000141941
6 *2065:CLK *1855:A1 0.000143828
7 *2065:D *1855:A1 9.47378e-05
8 *254:14 *1855:A1 0.000495285
*RES
1 *2172:X *1855:A1 47.5107 
*END

*D_NET *569 0.00455863
*CONN
*I *1903:B I *D sky130_fd_sc_hd__and4_2
*I *1901:A I *D sky130_fd_sc_hd__and3_2
*I *2273:A I *D sky130_fd_sc_hd__clkdlybuf4s25_1
*I *2199:A I *D sky130_fd_sc_hd__dlygate4sd3_1
*I *2036:Q O *D sky130_fd_sc_hd__dfxtp_2
*CAP
1 *1903:B 3.67813e-05
2 *1901:A 0
3 *2273:A 0.000646259
4 *2199:A 0.000331748
5 *2036:Q 0.000264872
6 *569:31 0.000720474
7 *569:27 0.000206165
8 *569:8 0.000691789
9 *1903:B *1903:A 0.000100037
10 *2199:A *1902:A 0.000125724
11 *2273:A *1911:A 0
12 *2273:A *2274:A 0
13 pcRegister[20] *2273:A 0
14 pcRegister[22] *2273:A 0.000109117
15 pcRegister[23] *2273:A 0
16 *1901:C *1903:B 6.86019e-05
17 *1901:C *569:31 2.59355e-05
18 *1902:B *2199:A 4.79842e-05
19 *1902:C *2199:A 4.38243e-05
20 *1902:C *569:27 9.91086e-05
21 *1903:C *1903:B 0.0002165
22 *1903:C *569:31 5.33005e-05
23 *1910:B *2273:A 0.000227021
24 *2025:CLK *2199:A 0
25 *2035:CLK *2199:A 0
26 *2036:CLK *569:8 6.64283e-05
27 *2039:D *2273:A 0
28 *2270:A *2199:A 5.50313e-05
29 *2271:A *2273:A 1.59373e-05
30 *2271:A *569:8 9.60939e-05
31 *2271:A *569:31 5.62285e-05
32 *2272:A *569:27 3.12359e-05
33 *546:14 *2199:A 0
34 *546:14 *569:27 0
35 *546:16 *2199:A 0
36 *564:48 *2199:A 0.000103372
37 *564:48 *569:27 6.49408e-05
38 *564:57 *569:27 5.41164e-05
*RES
1 *2036:Q *569:8 17.2107 
2 *569:8 *2199:A 20.9964 
3 *569:8 *569:27 6.44643 
4 *569:27 *569:31 1.78571 
5 *569:31 *2273:A 30.9607 
6 *569:31 *1901:A 9.3 
7 *569:27 *1903:B 11.4786 
*END

*D_NET *570 0.00297547
*CONN
*I *1913:A1 I *D sky130_fd_sc_hd__o21a_2
*I *2173:X O *D sky130_fd_sc_hd__dlygate4sd3_1
*CAP
1 *1913:A1 0.000721431
2 *2173:X 0.000721431
3 *1913:A1 *1917:A2 2.39313e-05
4 *1913:A1 *2279:A 8.93485e-05
5 *1913:A1 *625:16 8.72823e-05
6 *1913:A1 *625:77 0.000222784
7 *1908:A2 *1913:A1 7.02611e-05
8 *1910:B *1913:A1 0.000139383
9 *1913:A2 *1913:A1 0.000120114
10 *2041:D *1913:A1 0.00031134
11 *516:42 *1913:A1 0.000468166
*RES
1 *2173:X *1913:A1 35.8679 
*END

*D_NET *571 0.00146927
*CONN
*I *1843:A1 I *D sky130_fd_sc_hd__a21boi_2
*I *1735:B1 I *D sky130_fd_sc_hd__o21a_2
*I *2174:X O *D sky130_fd_sc_hd__dlygate4sd3_1
*CAP
1 *1843:A1 0.000125046
2 *1735:B1 3.51809e-05
3 *2174:X 3.82057e-05
4 *571:6 0.000198432
5 *1735:B1 *692:78 1.98839e-05
6 *1843:A1 *692:78 5.46383e-06
7 *571:6 *692:78 0.00013527
8 *1734:A *1843:A1 9.15842e-06
9 *1735:A1 *571:6 5.50052e-05
10 *2050:CLK *1735:B1 4.84159e-05
11 *2050:CLK *571:6 7.0172e-05
12 *552:62 *1843:A1 0.000338633
13 *556:12 *1735:B1 5.33005e-05
14 *556:14 *1843:A1 0.000337103
*RES
1 *2174:X *571:6 11.0679 
2 *571:6 *1735:B1 10.2464 
3 *571:6 *1843:A1 23.1036 
*END

*D_NET *572 0.000594975
*CONN
*I *2095:D I *D sky130_fd_sc_hd__dfrtp_2
*I *2175:X O *D sky130_fd_sc_hd__dlygate4sd3_1
*CAP
1 *2095:D 0.000194496
2 *2175:X 0.000194496
3 *2152:A *2095:D 0.000173457
4 *349:19 *2095:D 3.25247e-05
*RES
1 *2175:X *2095:D 30.7071 
*END

*D_NET *573 0.000314753
*CONN
*I *1830:A I *D sky130_fd_sc_hd__xnor2_2
*I *2176:X O *D sky130_fd_sc_hd__dlygate4sd3_1
*CAP
1 *1830:A 6.39941e-05
2 *2176:X 6.39941e-05
3 *1830:A *1803:B1 0.000186765
*RES
1 *2176:X *1830:A 20.3679 
*END

*D_NET *574 0.00240439
*CONN
*I *1863:A1 I *D sky130_fd_sc_hd__o21a_2
*I *2177:X O *D sky130_fd_sc_hd__dlygate4sd3_1
*CAP
1 *1863:A1 0.00037844
2 *2177:X 0.00037844
3 *1863:A1 *1867:A 9.90431e-05
4 *1863:A1 *677:50 0.000264154
5 *1863:A1 *679:48 0.000317248
6 *1866:C *1863:A1 0.000145411
7 *2021:D *1863:A1 0.000104974
8 *2023:D *1863:A1 0.000285383
9 *2063:CLK *1863:A1 5.52238e-05
10 *2140:A *1863:A1 0.000124076
11 *482:34 *1863:A1 0
12 *491:23 *1863:A1 0.000181217
13 *495:26 *1863:A1 5.52302e-05
14 *535:86 *1863:A1 1.55485e-05
*RES
1 *2177:X *1863:A1 40.4929 
*END

*D_NET *575 0.000538164
*CONN
*I *1641:B1 I *D sky130_fd_sc_hd__a21oi_2
*I *2178:X O *D sky130_fd_sc_hd__dlygate4sd3_1
*CAP
1 *1641:B1 0.000201623
2 *2178:X 0.000201623
3 *1641:B1 *1935:A 0.000125316
4 mem_addr[24] *1641:B1 9.60337e-06
5 *1643:A1 *1641:B1 0
*RES
1 *2178:X *1641:B1 31.4214 
*END

*D_NET *576 0.000585631
*CONN
*I *2083:D I *D sky130_fd_sc_hd__dfrtp_2
*I *2179:X O *D sky130_fd_sc_hd__dlygate4sd3_1
*CAP
1 *2083:D 0.000136976
2 *2179:X 0.000136976
3 *2083:D *701:74 6.09754e-05
4 *1641:A2 *2083:D 0.000147594
5 *1642:B1 *2083:D 0.00010311
*RES
1 *2179:X *2083:D 31.3679 
*END

*D_NET *577 0.00265942
*CONN
*I *1868:A1 I *D sky130_fd_sc_hd__o21ai_2
*I *1869:A1 I *D sky130_fd_sc_hd__a21oi_2
*I *2180:X O *D sky130_fd_sc_hd__dlygate4sd3_1
*CAP
1 *1868:A1 0
2 *1869:A1 0.000315068
3 *2180:X 0.000284507
4 *577:10 0.000599575
5 *1869:A1 *1870:B1 0.000227971
6 *1869:A1 *1873:A 0.000446768
7 *1869:A1 *2210:A 0.000100165
8 *1869:A1 *702:12 1.02504e-05
9 *577:10 *1875:A1 5.60962e-05
10 *577:10 *679:112 0.000157327
11 *577:10 *686:27 9.33439e-05
12 *577:10 *702:12 0.000140375
13 *1869:B1 *1869:A1 0.000227971
14 *496:54 *1869:A1 0
15 *496:54 *577:10 0
*RES
1 *2180:X *577:10 19.5679 
2 *577:10 *1869:A1 22.7821 
3 *577:10 *1868:A1 13.8 
*END

*D_NET *578 0.0014987
*CONN
*I *1666:A I *D sky130_fd_sc_hd__xnor2_2
*I *2181:X O *D sky130_fd_sc_hd__dlygate4sd3_1
*CAP
1 *1666:A 0.000529671
2 *2181:X 0.000529671
3 *1666:A *1970:A 0.000142856
4 *1666:A *700:21 0
5 *1666:A *761:14 9.92409e-05
6 *1668:A *1666:A 1.02504e-05
7 *1668:B *1666:A 0.000129868
8 *2079:CLK *1666:A 5.71472e-05
*RES
1 *2181:X *1666:A 35.1179 
*END

*D_NET *579 0.00194998
*CONN
*I *1774:A1 I *D sky130_fd_sc_hd__a21boi_2
*I *1720:B1_N I *D sky130_fd_sc_hd__a21boi_2
*I *2182:X O *D sky130_fd_sc_hd__dlygate4sd3_1
*CAP
1 *1774:A1 0
2 *1720:B1_N 0.000264379
3 *2182:X 0.000188071
4 *579:12 0.00045245
5 *1720:B1_N *1980:A 0.000519249
6 *1720:B1_N *2157:A 5.70447e-05
7 *579:12 *681:8 9.25014e-06
8 *579:12 *681:19 0.00011891
9 *1719:B *1720:B1_N 7.60306e-05
10 *1774:A2 *579:12 5.33005e-05
11 *1790:C_N *1720:B1_N 3.91098e-05
12 *1831:A *1720:B1_N 0
13 *2061:D *1720:B1_N 0
14 *2088:RESET_B *579:12 6.75007e-05
15 *2183:A *579:12 8.70693e-05
16 *413:31 *1720:B1_N 0
17 *555:86 *1720:B1_N 1.76135e-05
*RES
1 *2182:X *579:12 22.5321 
2 *579:12 *1720:B1_N 25.7107 
3 *579:12 *1774:A1 9.3 
*END

*D_NET *580 0.00214749
*CONN
*I *2274:A I *D sky130_fd_sc_hd__clkdlybuf4s25_1
*I *2171:A I *D sky130_fd_sc_hd__dlygate4sd3_1
*I *1903:A I *D sky130_fd_sc_hd__and4_2
*I *2037:Q O *D sky130_fd_sc_hd__dfxtp_2
*CAP
1 *2274:A 0.000158123
2 *2171:A 3.68446e-05
3 *1903:A 9.07226e-05
4 *2037:Q 0.000345798
5 *580:21 0.000345672
6 *580:8 0.000587224
7 *2274:A *1910:A 0.000141734
8 *2274:A *1911:A 7.57394e-05
9 *1901:C *1903:A 9.83442e-05
10 *1903:B *1903:A 0.000100037
11 *2272:A *1903:A 4.6361e-05
12 *2272:A *580:21 0.000120888
13 *2273:A *2274:A 0
14 *546:79 *2274:A 0
*RES
1 *2037:Q *580:8 17.6214 
2 *580:8 *1903:A 16.0857 
3 *580:8 *580:21 3.46429 
4 *580:21 *2171:A 14.3357 
5 *580:21 *2274:A 17.4071 
*END

*D_NET *581 0.00037183
*CONN
*I *2088:D I *D sky130_fd_sc_hd__dfrtp_2
*I *2183:X O *D sky130_fd_sc_hd__dlygate4sd3_1
*CAP
1 *2088:D 0.000113933
2 *2183:X 0.000113933
3 *2088:D *1950:A 1.58163e-05
4 *2088:D *681:8 0
5 *2088:D *728:27 0.000128146
*RES
1 *2183:X *2088:D 29.7786 
*END

*D_NET *582 0.00142019
*CONN
*I *1607:A I *D sky130_fd_sc_hd__inv_2
*I *2184:X O *D sky130_fd_sc_hd__dlygate4sd3_1
*CAP
1 *1607:A 0.000583763
2 *2184:X 0.000583763
3 pcRegister[24] *1607:A 0
4 pcRegister[28] *1607:A 0.000164131
5 pcRegister[30] *1607:A 1.90936e-05
6 *1922:B *1607:A 6.94403e-05
7 *2043:D *1607:A 0
*RES
1 *2184:X *1607:A 39.4929 
*END

*D_NET *583 0.000817832
*CONN
*I *1632:A1 I *D sky130_fd_sc_hd__a22o_2
*I *2185:X O *D sky130_fd_sc_hd__dlygate4sd3_1
*CAP
1 *1632:A1 0.000161718
2 *2185:X 0.000161718
3 *1632:A1 *1616:A 5.52302e-05
4 *1627:C *1632:A1 0.000227532
5 *1632:A2 *1632:A1 1.57155e-05
6 *2059:CLK *1632:A1 0.000195917
*RES
1 *2185:X *1632:A1 22.8321 
*END

*D_NET *584 0.00101879
*CONN
*I *1669:B1 I *D sky130_fd_sc_hd__a21oi_2
*I *2186:X O *D sky130_fd_sc_hd__dlygate4sd3_1
*CAP
1 *1669:B1 0.000222091
2 *2186:X 0.000222091
3 *1669:B1 *1678:C 0
4 *1669:B1 *1678:D 9.84729e-05
5 *1669:B1 *759:21 0.000312664
6 *2187:A *1669:B1 0.000150392
7 *383:12 *1669:B1 1.30833e-05
*RES
1 *2186:X *1669:B1 33.1536 
*END

*D_NET *585 0.00104306
*CONN
*I *1670:B I *D sky130_fd_sc_hd__nor2_2
*I *2187:X O *D sky130_fd_sc_hd__dlygate4sd3_1
*CAP
1 *1670:B 0.00029038
2 *2187:X 0.00029038
3 *1670:B *1678:C 6.75007e-05
4 *1670:B *2165:A 2.89114e-05
5 *1670:B *701:92 0
6 *1670:B *759:10 0
7 *1670:B *760:27 7.79748e-05
8 *1668:B *1670:B 0
9 *2079:CLK *1670:B 9.56968e-05
10 *2079:RESET_B *1670:B 0.000131491
11 *541:12 *1670:B 6.07232e-05
*RES
1 *2187:X *1670:B 34.9393 
*END

*D_NET *586 0.000444338
*CONN
*I *1826:B1 I *D sky130_fd_sc_hd__a21oi_2
*I *2188:X O *D sky130_fd_sc_hd__dlygate4sd3_1
*CAP
1 *1826:B1 0.000163845
2 *2188:X 0.000163845
3 *1826:B1 *684:10 0
4 *1826:B1 *684:40 0
5 *1826:B1 *688:27 9.90431e-05
6 *1631:C *1826:B1 1.76039e-05
*RES
1 *2188:X *1826:B1 30.1893 
*END

*D_NET *587 0.00116612
*CONN
*I *1822:B1 I *D sky130_fd_sc_hd__a21oi_2
*I *2189:X O *D sky130_fd_sc_hd__dlygate4sd3_1
*CAP
1 *1822:B1 0.000283874
2 *2189:X 0.000283874
3 *1822:B1 *1654:B 6.33061e-05
4 *1822:B1 *1822:A1 9.90367e-05
5 *1822:B1 *2189:A 4.71921e-05
6 *1822:B1 *2211:A 0.000181803
7 *1822:B1 *696:38 3.91192e-05
8 *2115:D *1822:B1 2.59355e-05
9 *535:290 *1822:B1 0.000141985
*RES
1 *2189:X *1822:B1 33.6 
*END

*D_NET *588 0.00113142
*CONN
*I *1823:B I *D sky130_fd_sc_hd__nor2_2
*I *2190:X O *D sky130_fd_sc_hd__dlygate4sd3_1
*CAP
1 *1823:B 0.000195315
2 *2190:X 0.000195315
3 *1823:B *1821:A 0.000342158
4 *1823:B *1821:B 7.83659e-05
5 *1823:B *741:19 3.2923e-05
6 *1823:B *742:23 0.000215088
7 *2117:CLK *1823:B 7.22574e-05
8 *535:233 *1823:B 0
*RES
1 *2190:X *1823:B 33.6357 
*END

*D_NET *589 0.000514717
*CONN
*I *1849:B1 I *D sky130_fd_sc_hd__a31oi_2
*I *2191:X O *D sky130_fd_sc_hd__dlygate4sd3_1
*CAP
1 *1849:B1 4.84368e-05
2 *2191:X 4.84368e-05
3 *1849:B1 *2191:A 0.000271439
4 *1848:A *1849:B1 0.000146404
*RES
1 *2191:X *1849:B1 21.1893 
*END

*D_NET *590 0.000495529
*CONN
*I *1802:A I *D sky130_fd_sc_hd__xor2_2
*I *1618:A I *D sky130_fd_sc_hd__inv_2
*I *2192:X O *D sky130_fd_sc_hd__dlygate4sd3_1
*CAP
1 *1802:A 0.000210997
2 *1618:A 3.02975e-05
3 *2192:X 0.000241294
4 *1802:A *1915:A1 9.25014e-06
5 *2105:D *1618:A 3.69047e-06
6 *2220:A *1802:A 0
*RES
1 *2192:X *1618:A 19.1357 
2 *2192:X *1802:A 30.6 
*END

*D_NET *591 0.00514597
*CONN
*I *2234:A I *D sky130_fd_sc_hd__dlygate4sd3_1
*I *1908:A1 I *D sky130_fd_sc_hd__a21oi_2
*I *2275:A I *D sky130_fd_sc_hd__clkdlybuf4s25_1
*I *1909:B I *D sky130_fd_sc_hd__and3_2
*I *1906:A1 I *D sky130_fd_sc_hd__a21oi_2
*I *1911:C I *D sky130_fd_sc_hd__and4_2
*I *2038:Q O *D sky130_fd_sc_hd__dfxtp_2
*CAP
1 *2234:A 2.48428e-05
2 *1908:A1 6.85125e-05
3 *2275:A 0.000307762
4 *1909:B 4.36033e-05
5 *1906:A1 0.000270417
6 *1911:C 2.85346e-05
7 *2038:Q 8.82856e-05
8 *591:53 0.00046493
9 *591:42 0.000173188
10 *591:25 0.000434587
11 *591:14 0.000373381
12 *591:10 0.000334734
13 *1906:A1 *1906:B1 2.59355e-05
14 *1906:A1 *602:25 0.000222666
15 *1908:A1 *670:14 5.64029e-05
16 *1911:C *683:57 5.58941e-05
17 *2275:A *670:14 0.000271904
18 *591:10 *1912:B 1.76039e-05
19 *591:14 *1912:A 0.000268403
20 *591:42 *2276:A 0
21 *591:53 *2276:A 0
22 *1906:A2 *1906:A1 1.21258e-05
23 *1908:A2 *1908:A1 4.66511e-05
24 *1910:C *1906:A1 7.02611e-05
25 *1910:C *1909:B 5.33005e-05
26 *1913:A2 *1906:A1 0.000129236
27 *2038:D *591:10 7.74186e-05
28 *2040:CLK *591:25 7.23529e-05
29 *2040:D *591:42 1.00133e-05
30 *2147:A *1906:A1 0.000139907
31 *2154:A *2275:A 5.52238e-05
32 *516:18 *1911:C 1.02504e-05
33 *516:18 *591:10 0
34 *516:27 *1911:C 6.81083e-05
35 *516:27 *591:10 0
36 *516:27 *591:25 0.00032246
37 *516:36 *1908:A1 0.000101545
38 *516:36 *591:25 4.56437e-05
39 *516:36 *591:42 7.57946e-05
40 *516:36 *591:53 0.000173797
41 *522:16 *2234:A 2.28598e-05
42 *522:16 *591:14 6.05161e-06
43 *546:79 *1911:C 1.21398e-05
44 *546:79 *591:25 0.000109239
*RES
1 *2038:Q *591:10 20.2464 
2 *591:10 *591:14 8.73214 
3 *591:14 *1911:C 14.8357 
4 *591:14 *591:25 4.67857 
5 *591:25 *1906:A1 20.6571 
6 *591:25 *591:42 1.03571 
7 *591:42 *1909:B 14.3357 
8 *591:42 *591:53 2.25 
9 *591:53 *2275:A 19.6929 
10 *591:53 *1908:A1 15.7464 
11 *591:10 *2234:A 9.83571 
*END

*D_NET *592 0.000702025
*CONN
*I *1889:A1 I *D sky130_fd_sc_hd__o21a_2
*I *2193:X O *D sky130_fd_sc_hd__dlygate4sd3_1
*CAP
1 *1889:A1 0.000235693
2 *2193:X 0.000235693
3 *1889:A1 *1877:A 3.57366e-05
4 *1889:A2 *1889:A1 2.89016e-05
5 *1889:B1 *1889:A1 0.000114661
6 *1891:C *1889:A1 2.56694e-05
7 *560:19 *1889:A1 2.56694e-05
*RES
1 *2193:X *1889:A1 31.5464 
*END

*D_NET *593 0.000103662
*CONN
*I *1819:A1 I *D sky130_fd_sc_hd__o21a_2
*I *2194:X O *D sky130_fd_sc_hd__dlygate4sd3_1
*CAP
1 *1819:A1 2.02318e-05
2 *2194:X 2.02318e-05
3 *1817:B *1819:A1 5.71472e-05
4 *464:10 *1819:A1 6.05161e-06
*RES
1 *2194:X *1819:A1 19.1357 
*END

*D_NET *594 0.000788618
*CONN
*I *1895:B1 I *D sky130_fd_sc_hd__a21oi_2
*I *2195:X O *D sky130_fd_sc_hd__dlygate4sd3_1
*CAP
1 *1895:B1 0.000292652
2 *2195:X 0.000292652
3 *1895:B1 *1906:B1 6.73181e-05
4 *1895:B1 *682:44 5.66943e-05
5 *1895:A1 *1895:B1 9.15842e-06
6 *1905:B1 *1895:B1 2.53112e-06
7 *535:337 *1895:B1 6.76113e-05
*RES
1 *2195:X *1895:B1 31.8321 
*END

*D_NET *595 0.00097377
*CONN
*I *1718:A1 I *D sky130_fd_sc_hd__a21o_2
*I *2196:X O *D sky130_fd_sc_hd__dlygate4sd3_1
*CAP
1 *1718:A1 0.000195842
2 *2196:X 0.000195842
3 *1718:A1 *1717:B 6.62783e-05
4 *1718:A1 *2162:A 0
5 mem_addr[8] *1718:A1 5.52238e-05
6 *1718:A2 *1718:A1 0.00015234
7 *1793:A *1718:A1 9.90431e-05
8 *1794:B1 *1718:A1 0.000175519
9 *407:25 *1718:A1 9.25014e-06
10 *556:88 *1718:A1 2.44318e-05
*RES
1 *2196:X *1718:A1 32.85 
*END

*D_NET *596 0.00061607
*CONN
*I *1752:B1 I *D sky130_fd_sc_hd__o21a_2
*I *2197:X O *D sky130_fd_sc_hd__dlygate4sd3_1
*CAP
1 *1752:B1 0.000126637
2 *2197:X 0.000126637
3 *1752:B1 *701:24 0.000220861
4 *433:20 *1752:B1 0.000141935
*RES
1 *2197:X *1752:B1 22.4214 
*END

*D_NET *597 0.000736877
*CONN
*I *1768:B1 I *D sky130_fd_sc_hd__o21a_2
*I *2198:X O *D sky130_fd_sc_hd__dlygate4sd3_1
*CAP
1 *1768:B1 8.80408e-05
2 *2198:X 8.80408e-05
3 *1723:A1 *1768:B1 0.000230475
4 *1768:A1 *1768:B1 0.000188586
5 *554:16 *1768:B1 0.000141734
*RES
1 *2198:X *1768:B1 22.0107 
*END

*D_NET *598 0.000520139
*CONN
*I *1900:B1 I *D sky130_fd_sc_hd__a21oi_2
*I *2199:X O *D sky130_fd_sc_hd__dlygate4sd3_1
*CAP
1 *1900:B1 4.35248e-05
2 *2199:X 4.35248e-05
3 *1902:B *1900:B1 2.28499e-05
4 *2270:A *1900:B1 0.000226513
5 *512:14 *1900:B1 0.000183726
*RES
1 *2199:X *1900:B1 20.7786 
*END

*D_NET *599 0.000306072
*CONN
*I *1876:B1 I *D sky130_fd_sc_hd__a21oi_2
*I *2200:X O *D sky130_fd_sc_hd__dlygate4sd3_1
*CAP
1 *1876:B1 3.17646e-05
2 *2200:X 3.17646e-05
3 *1876:B1 *1888:A 0.000143928
4 *2025:D *1876:B1 9.86146e-05
*RES
1 *2200:X *1876:B1 19.9571 
*END

*D_NET *600 0.000255084
*CONN
*I *1672:A I *D sky130_fd_sc_hd__xor2_2
*I *2201:X O *D sky130_fd_sc_hd__dlygate4sd3_1
*CAP
1 *1672:A 6.26081e-05
2 *2201:X 6.26081e-05
3 *1672:B *1672:A 0.000129868
*RES
1 *2201:X *1672:A 29.2429 
*END

*D_NET *601 0.000166114
*CONN
*I *1829:A I *D sky130_fd_sc_hd__xor2_2
*I *2202:X O *D sky130_fd_sc_hd__dlygate4sd3_1
*CAP
1 *1829:A 3.30641e-05
2 *2202:X 3.30641e-05
3 *1829:B *1829:A 9.99853e-05
*RES
1 *2202:X *1829:A 19.5464 
*END

*D_NET *602 0.00481266
*CONN
*I *2206:A I *D sky130_fd_sc_hd__dlygate4sd3_1
*I *1909:A I *D sky130_fd_sc_hd__and3_2
*I *2276:A I *D sky130_fd_sc_hd__clkdlybuf4s25_1
*I *1911:B I *D sky130_fd_sc_hd__and4_2
*I *2039:Q O *D sky130_fd_sc_hd__dfxtp_2
*CAP
1 *2206:A 0.000224989
2 *1909:A 0
3 *2276:A 0.000694094
4 *1911:B 0.000282743
5 *2039:Q 0
6 *602:25 0.000833497
7 *602:21 0.000410722
8 *602:6 0.000329073
9 *1911:B *1910:A 1.58519e-05
10 *1911:B *1912:A 0.000254036
11 *1911:B *1912:B 0.000102806
12 *2206:A *1912:B 7.10121e-05
13 *2276:A *2278:A 0.000387425
14 *2276:A *614:25 0.000283736
15 *2276:A *647:12 0
16 *2276:A *670:14 0
17 *602:21 *1912:B 3.5707e-05
18 *1906:A1 *602:25 0.000222666
19 *1910:C *2276:A 6.07384e-05
20 *1910:C *602:25 1.55885e-05
21 *2040:CLK *2276:A 0
22 *2040:D *2276:A 9.05528e-05
23 *2042:D *2206:A 7.43578e-06
24 *323:18 *2276:A 0.000225982
25 *516:27 *1911:B 0
26 *521:8 *1911:B 0.000112106
27 *521:8 *2206:A 0.000104315
28 *521:8 *602:21 4.75812e-05
29 *591:42 *2276:A 0
30 *591:53 *2276:A 0
*RES
1 *2039:Q *602:6 13.8 
2 *602:6 *1911:B 20.5857 
3 *602:6 *602:21 1.33929 
4 *602:21 *602:25 7.08929 
5 *602:25 *2276:A 33.6214 
6 *602:25 *1909:A 9.3 
7 *602:21 *2206:A 18.425 
*END

*D_NET *603 0.000881034
*CONN
*I *1875:A1 I *D sky130_fd_sc_hd__o211a_2
*I *2203:X O *D sky130_fd_sc_hd__dlygate4sd3_1
*CAP
1 *1875:A1 0.000330481
2 *2203:X 0.000330481
3 *1875:A1 *2180:A 3.69047e-06
4 *1875:A1 *2298:A 7.70134e-06
5 *1875:A1 *686:27 6.40185e-05
6 *1875:A2 *1875:A1 5.37741e-06
7 *2027:D *1875:A1 8.31882e-05
8 *543:37 *1875:A1 0
9 *577:10 *1875:A1 5.60962e-05
*RES
1 *2203:X *1875:A1 32.4973 
*END

*D_NET *604 0.000192673
*CONN
*I *1805:A I *D sky130_fd_sc_hd__xor2_2
*I *2204:X O *D sky130_fd_sc_hd__dlygate4sd3_1
*CAP
1 *1805:A 2.07038e-05
2 *2204:X 2.07038e-05
3 *1805:A *2204:A 5.28427e-05
4 *1805:B *1805:A 9.84229e-05
*RES
1 *2204:X *1805:A 19.5464 
*END

*D_NET *605 0.000233364
*CONN
*I *1693:A I *D sky130_fd_sc_hd__xnor2_2
*I *2205:X O *D sky130_fd_sc_hd__dlygate4sd3_1
*CAP
1 *1693:A 8.50506e-05
2 *2205:X 8.50506e-05
3 *1693:B *1693:A 0
4 *542:10 *1693:A 1.76039e-05
5 *542:43 *1693:A 4.56594e-05
*RES
1 *2205:X *1693:A 29.2429 
*END

*D_NET *606 0.000389229
*CONN
*I *1908:B1 I *D sky130_fd_sc_hd__a21oi_2
*I *2206:X O *D sky130_fd_sc_hd__dlygate4sd3_1
*CAP
1 *1908:B1 0.000129941
2 *2206:X 0.000129941
3 *1908:B1 *1912:B 0
4 *2154:A *1908:B1 6.05161e-06
5 *521:31 *1908:B1 0.000123295
*RES
1 *2206:X *1908:B1 29.7786 
*END

*D_NET *607 0.000163614
*CONN
*I *1692:A I *D sky130_fd_sc_hd__xor2_2
*I *2207:X O *D sky130_fd_sc_hd__dlygate4sd3_1
*CAP
1 *1692:A 8.1807e-05
2 *2207:X 8.1807e-05
*RES
1 *2207:X *1692:A 19.9571 
*END

*D_NET *608 0.00029096
*CONN
*I *1883:A1 I *D sky130_fd_sc_hd__o211a_2
*I *2208:X O *D sky130_fd_sc_hd__dlygate4sd3_1
*CAP
1 *1883:A1 4.36889e-05
2 *2208:X 4.36889e-05
3 *1883:B1 *1883:A1 8.86298e-05
4 *2029:D *1883:A1 5.52238e-05
5 *492:79 *1883:A1 5.97283e-05
*RES
1 *2208:X *1883:A1 20.2161 
*END

*D_NET *609 0.00184506
*CONN
*I *1916:B1 I *D sky130_fd_sc_hd__a21oi_2
*I *2209:X O *D sky130_fd_sc_hd__dlygate4sd3_1
*CAP
1 *1916:B1 0.000415339
2 *2209:X 0.000415339
3 *1916:B1 *1907:A1 0.000118488
4 *1916:B1 *1916:A1 0
5 *1916:B1 *1919:A1 0.000193891
6 *1916:B1 *625:16 5.17614e-05
7 *1929:D *1916:B1 0.000344689
8 *528:20 *1916:B1 0.000305553
*RES
1 *2209:X *1916:B1 37.475 
*END

*D_NET *610 0.000824763
*CONN
*I *1870:B1 I *D sky130_fd_sc_hd__a21oi_2
*I *2210:X O *D sky130_fd_sc_hd__dlygate4sd3_1
*CAP
1 *1870:B1 0.000141877
2 *2210:X 0.000141877
3 *1870:B1 *1873:A 0.000108839
4 *1869:A1 *1870:B1 0.000227971
5 *1869:A2 *1870:B1 5.50052e-05
6 *1872:B *1870:B1 0.000149193
*RES
1 *2210:X *1870:B1 22.8679 
*END

*D_NET *611 0.000386291
*CONN
*I *1820:A I *D sky130_fd_sc_hd__xor2_2
*I *2211:X O *D sky130_fd_sc_hd__dlygate4sd3_1
*CAP
1 *1820:A 0.00012614
2 *2211:X 0.00012614
3 *1820:A *1822:A1 5.52302e-05
4 *1820:A *741:19 7.87801e-05
5 *2142:A *1820:A 0
*RES
1 *2211:X *1820:A 30.0821 
*END

*D_NET *612 0.000123457
*CONN
*I *1671:A I *D sky130_fd_sc_hd__xor2_2
*I *2212:X O *D sky130_fd_sc_hd__dlygate4sd3_1
*CAP
1 *1671:A 6.17285e-05
2 *2212:X 6.17285e-05
*RES
1 *2212:X *1671:A 19.5464 
*END

*D_NET *613 0.00238326
*CONN
*I *2277:A I *D sky130_fd_sc_hd__clkdlybuf4s25_1
*I *2121:Q O *D sky130_fd_sc_hd__dfstp_2
*CAP
1 *2277:A 0.000902329
2 *2121:Q 0.000902329
3 *2277:A *1916:A1 0.00011968
4 *2277:A *1916:A2 0
5 *2277:A *1919:A1 9.44851e-05
6 *2277:A *1919:B1 0
7 *2277:A *1930:B1 0.000226279
8 *2277:A *658:36 1.96648e-05
9 *2045:D *2277:A 1.90936e-05
10 *169:79 *2277:A 9.94001e-05
*RES
1 *2121:Q *2277:A 39.85 
*END

*D_NET *614 0.00406095
*CONN
*I *2278:A I *D sky130_fd_sc_hd__clkdlybuf4s25_1
*I *2173:A I *D sky130_fd_sc_hd__dlygate4sd3_1
*I *1911:A I *D sky130_fd_sc_hd__and4_2
*I *2040:Q O *D sky130_fd_sc_hd__dfxtp_2
*CAP
1 *2278:A 0.000369745
2 *2173:A 0
3 *1911:A 0.000367769
4 *2040:Q 0.000252596
5 *614:25 0.000634844
6 *614:8 0.000885464
7 *1911:A *1910:A 5.22354e-05
8 *2278:A *2284:A 9.15842e-06
9 *2278:A *647:12 0
10 pcRegister[27] *2278:A 0.00032098
11 pcRegister[27] *614:25 6.68305e-05
12 pcRegister[28] *2278:A 9.93955e-05
13 *1910:B *1911:A 0
14 *1910:B *614:25 0
15 *1910:C *614:8 3.03901e-05
16 *2039:D *1911:A 0.000224641
17 *2043:D *2278:A 0
18 *2273:A *1911:A 0
19 *2274:A *1911:A 7.57394e-05
20 *2276:A *2278:A 0.000387425
21 *2276:A *614:25 0.000283736
*RES
1 *2040:Q *614:8 16.8 
2 *614:8 *1911:A 20.5679 
3 *614:8 *614:25 6.25 
4 *614:25 *2173:A 13.8 
5 *614:25 *2278:A 23.2821 
*END

*D_NET *615 0.00108026
*CONN
*I *1795:A1 I *D sky130_fd_sc_hd__a21bo_2
*I *2213:X O *D sky130_fd_sc_hd__dlygate4sd3_1
*CAP
1 *1795:A1 0.000277188
2 *2213:X 0.000277188
3 *1795:A1 *1715:B 2.85321e-05
4 *1795:A1 *1715:C 7.25052e-05
5 *1795:A1 *2162:A 0.000104399
6 *1795:A1 *2213:A 0.000182804
7 *1795:A1 *717:21 0.000137639
*RES
1 *2213:X *1795:A1 24.8857 
*END

*D_NET *616 0.00121339
*CONN
*I *1791:B1 I *D sky130_fd_sc_hd__a21o_2
*I *2214:X O *D sky130_fd_sc_hd__dlygate4sd3_1
*CAP
1 *1791:B1 0.000235478
2 *2214:X 0.000235478
3 *1791:B1 *692:59 0
4 *1791:B1 *721:14 0
5 *1743:A3 *1791:B1 7.83587e-05
6 *1793:B *1791:B1 5.22828e-05
7 *2093:RESET_B *1791:B1 0.000148189
8 *2094:CLK *1791:B1 5.33005e-05
9 *2215:A *1791:B1 0.00010096
10 *552:62 *1791:B1 0.000254123
11 *553:34 *1791:B1 5.52238e-05
*RES
1 *2214:X *1791:B1 33.975 
*END

*D_NET *617 0.000520181
*CONN
*I *2093:D I *D sky130_fd_sc_hd__dfrtp_2
*I *2215:X O *D sky130_fd_sc_hd__dlygate4sd3_1
*CAP
1 *2093:D 0.00021101
2 *2215:X 0.00021101
3 *1793:A *2093:D 5.30637e-06
4 *1793:B *2093:D 5.71472e-05
5 *537:14 *2093:D 3.5707e-05
*RES
1 *2215:X *2093:D 30.7071 
*END

*D_NET *618 0.000394984
*CONN
*I *1740:A1 I *D sky130_fd_sc_hd__o22a_2
*I *2216:X O *D sky130_fd_sc_hd__dlygate4sd3_1
*CAP
1 *1740:A1 4.62263e-05
2 *2216:X 4.62263e-05
3 *1740:A1 *692:14 0.000139344
4 *1740:A2 *1740:A1 2.38501e-05
5 *2054:RESET_B *1740:A1 0.000139338
*RES
1 *2216:X *1740:A1 20.3679 
*END

*D_NET *619 0.000891347
*CONN
*I *1858:B1 I *D sky130_fd_sc_hd__a21oi_2
*I *2217:X O *D sky130_fd_sc_hd__dlygate4sd3_1
*CAP
1 *1858:B1 0.000103594
2 *2217:X 0.000103594
3 *1711:A2 *1858:B1 5.52302e-05
4 *1711:B1_N *1858:B1 0.000132967
5 *1860:B *1858:B1 0.000442628
6 *483:39 *1858:B1 5.33334e-05
*RES
1 *2217:X *1858:B1 22.8321 
*END

*D_NET *620 0.000468913
*CONN
*I *1824:A I *D sky130_fd_sc_hd__xor2_2
*I *2218:X O *D sky130_fd_sc_hd__dlygate4sd3_1
*CAP
1 *1824:A 8.07846e-05
2 *2218:X 8.07846e-05
3 *1824:A *685:26 0.000126797
4 *2114:CLK *1824:A 5.33005e-05
5 *468:14 *1824:A 0.000127246
*RES
1 *2218:X *1824:A 29.7786 
*END

*D_NET *621 0.00171438
*CONN
*I *1803:B1 I *D sky130_fd_sc_hd__a21oi_2
*I *2219:X O *D sky130_fd_sc_hd__dlygate4sd3_1
*CAP
1 *1803:B1 0.000594065
2 *2219:X 0.000594065
3 *1803:B1 *1803:A1 9.17716e-05
4 *1803:B1 *687:36 0.000149235
5 *1830:A *1803:B1 0.000186765
6 *1830:B *1803:B1 9.84729e-05
*RES
1 *2219:X *1803:B1 38.4929 
*END

*D_NET *622 0.00111983
*CONN
*I *1804:B I *D sky130_fd_sc_hd__nor2_2
*I *2220:X O *D sky130_fd_sc_hd__dlygate4sd3_1
*CAP
1 *1804:B 0.000142712
2 *2220:X 0.000142712
3 *1804:B *1649:A 5.03772e-05
4 *1804:B *1651:C 9.87672e-05
5 *1804:B *1651:D 5.99152e-05
6 *1804:B *685:51 0.000532181
7 *1804:B *740:44 2.59355e-05
8 *2107:D *1804:B 6.72277e-05
*RES
1 *2220:X *1804:B 24.0821 
*END

*D_NET *623 0.00126132
*CONN
*I *1802:B I *D sky130_fd_sc_hd__xor2_2
*I *2221:X O *D sky130_fd_sc_hd__dlygate4sd3_1
*CAP
1 *1802:B 0.000461876
2 *2221:X 0.000461876
3 *1802:B *1915:A1 0
4 *1802:B *1917:A2 2.89114e-05
5 *1802:B *636:12 0
6 *2106:CLK *1802:B 3.22325e-05
7 *2220:A *1802:B 0.000103958
8 *522:16 *1802:B 0.000172466
*RES
1 *2221:X *1802:B 26.8625 
*END

*D_NET *624 0.000402897
*CONN
*I *1721:B1 I *D sky130_fd_sc_hd__o31a_2
*I *2222:X O *D sky130_fd_sc_hd__dlygate4sd3_1
*CAP
1 *1721:B1 9.27699e-05
2 *2222:X 9.27699e-05
3 *1783:B1 *1721:B1 0.000125731
4 *1784:A *1721:B1 6.65398e-05
5 *1784:B *1721:B1 1.92789e-05
6 *331:10 *1721:B1 5.80706e-06
*RES
1 *2222:X *1721:B1 29.7786 
*END

*D_NET *625 0.00828733
*CONN
*I *1917:A2 I *D sky130_fd_sc_hd__a31o_2
*I *2243:A I *D sky130_fd_sc_hd__dlygate4sd3_1
*I *2252:A I *D sky130_fd_sc_hd__dlygate4sd3_1
*I *1914:A1 I *D sky130_fd_sc_hd__a21oi_2
*I *1919:A2 I *D sky130_fd_sc_hd__a31o_2
*I *1920:C I *D sky130_fd_sc_hd__and3_2
*I *2279:A I *D sky130_fd_sc_hd__clkdlybuf4s25_1
*I *2041:Q O *D sky130_fd_sc_hd__dfxtp_2
*CAP
1 *1917:A2 0.000240188
2 *2243:A 0
3 *2252:A 0
4 *1914:A1 0
5 *1919:A2 0.000774191
6 *1920:C 0
7 *2279:A 0.000559541
8 *2041:Q 0
9 *625:77 0.000338177
10 *625:39 0.000954041
11 *625:24 0.000753664
12 *625:20 0.000222013
13 *625:16 0.000450284
14 *625:4 0.000340534
15 *1917:A2 *670:70 2.22674e-05
16 *1917:A2 *685:51 0
17 *1917:A2 *688:68 1.88155e-05
18 *1919:A2 *1916:A2 2.06178e-05
19 *1919:A2 *1919:A1 2.06178e-05
20 *1919:A2 *1919:B1 0.000424021
21 *1919:A2 *2011:A 1.32536e-05
22 *2279:A *1912:B 3.6152e-05
23 *625:16 *1907:A1 0
24 *625:16 *636:20 0
25 *625:16 *636:34 6.05161e-06
26 *625:20 *1914:A2 5.7661e-06
27 *625:20 *1916:A1 1.83136e-05
28 *625:20 *670:23 2.89016e-05
29 *625:20 *670:36 3.97677e-05
30 *625:24 *670:23 1.39841e-05
31 *625:39 *2282:A 0
32 red[0] *2279:A 2.06112e-05
33 *1802:B *1917:A2 2.89114e-05
34 *1908:A2 *2279:A 0.000140933
35 *1910:B *2279:A 7.77287e-05
36 *1913:A1 *1917:A2 2.39313e-05
37 *1913:A1 *2279:A 8.93485e-05
38 *1913:A1 *625:16 8.72823e-05
39 *1913:A1 *625:77 0.000222784
40 *1913:A2 *1917:A2 5.50313e-05
41 *1913:A2 *625:16 0.000180777
42 *1913:A2 *625:77 0.000215348
43 *1915:B1 *625:16 0.000138569
44 *1915:B1 *625:20 0.000349721
45 *1916:B1 *625:16 5.17614e-05
46 *1918:A *1919:A2 8.07792e-06
47 *1918:A *625:39 8.57859e-05
48 *1918:B *625:39 7.84294e-05
49 *1922:C *1919:A2 7.54104e-05
50 *2042:D *2279:A 2.6949e-05
51 *2042:D *625:39 3.4323e-06
52 *2043:CLK *625:20 6.57815e-05
53 *2043:CLK *625:24 5.52302e-05
54 *2045:D *1919:A2 0.000126136
55 *2122:SET_B *1919:A2 8.37178e-05
56 *278:22 *1919:A2 0.000166151
57 *521:31 *2279:A 9.10577e-05
58 *521:31 *625:39 0.00032653
59 *528:20 *625:16 0.000110738
*RES
1 *2041:Q *625:4 9.3 
2 *625:4 *625:16 14.8036 
3 *625:16 *625:20 5.07143 
4 *625:20 *625:24 5.03571 
5 *625:24 *2279:A 23.8893 
6 *625:24 *625:39 5.28571 
7 *625:39 *1920:C 13.8 
8 *625:39 *1919:A2 27.7812 
9 *625:20 *1914:A1 9.3 
10 *625:16 *2252:A 9.3 
11 *625:4 *625:77 4.25 
12 *625:77 *2243:A 9.3 
13 *625:77 *1917:A2 22.8179 
*END

*D_NET *626 0.000600258
*CONN
*I *1722:B1 I *D sky130_fd_sc_hd__o31a_2
*I *2223:X O *D sky130_fd_sc_hd__dlygate4sd3_1
*CAP
1 *1722:B1 7.67407e-05
2 *2223:X 7.67407e-05
3 *1722:B1 *1621:A2 0.000145522
4 *1722:B1 *708:16 5.71472e-05
5 *1722:A2 *1722:B1 4.60217e-05
6 *1841:B *1722:B1 5.52302e-05
7 *330:6 *1722:B1 0.000142856
*RES
1 *2223:X *1722:B1 21.7429 
*END

*D_NET *627 0.00401081
*CONN
*I *1846:B1 I *D sky130_fd_sc_hd__a21oi_2
*I *2224:X O *D sky130_fd_sc_hd__dlygate4sd3_1
*CAP
1 *1846:B1 0.000495611
2 *2224:X 0.000495611
3 *1846:B1 *1846:A1 0.000162152
4 *1846:B1 *1847:B1 0.00114827
5 *1846:B1 *659:36 5.52238e-05
6 *1846:B1 *659:38 0.000114655
7 *1846:B1 *659:44 0.000190926
8 *1846:B1 *659:82 0.000803539
9 *1732:A2 *1846:B1 5.71472e-05
10 *1733:B *1846:B1 8.57535e-05
11 *1845:A2 *1846:B1 5.71472e-05
12 *2017:D *1846:B1 5.71472e-05
13 *478:20 *1846:B1 5.52238e-05
14 *481:14 *1846:B1 0.000232399
*RES
1 *2224:X *1846:B1 38.5821 
*END

*D_NET *628 0.000104357
*CONN
*I *1894:A1 I *D sky130_fd_sc_hd__o21ba_2
*I *2225:X O *D sky130_fd_sc_hd__dlygate4sd3_1
*CAP
1 *1894:A1 7.67105e-06
2 *2225:X 7.67105e-06
3 *1893:A1 *1894:A1 5.71472e-05
4 *2271:A *1894:A1 3.18676e-05
*RES
1 *2225:X *1894:A1 19.1357 
*END

*D_NET *629 0.000684262
*CONN
*I *1792:A I *D sky130_fd_sc_hd__and2_2
*I *2226:X O *D sky130_fd_sc_hd__dlygate4sd3_1
*CAP
1 *1792:A 0.000162794
2 *2226:X 0.000162794
3 *1792:A *1636:C 0
4 *1792:A *694:8 9.58181e-05
5 *1792:A *701:57 3.85148e-05
6 mem_addr[10] *1792:A 0.000224341
*RES
1 *2226:X *1792:A 31.4214 
*END

*D_NET *630 0.000421282
*CONN
*I *1695:A I *D sky130_fd_sc_hd__nor2_2
*I *2227:X O *D sky130_fd_sc_hd__dlygate4sd3_1
*CAP
1 *1695:A 0.000207552
2 *2227:X 0.000207552
3 *1695:A *1959:A 6.17796e-06
*RES
1 *2227:X *1695:A 22.0286 
*END

*D_NET *631 0.000577868
*CONN
*I *1781:B I *D sky130_fd_sc_hd__and2b_2
*I *2228:X O *D sky130_fd_sc_hd__dlygate4sd3_1
*CAP
1 *1781:B 8.39388e-05
2 *2228:X 8.39388e-05
3 *1788:A2 *1781:B 0.000140243
4 *445:18 *1781:B 0.000269747
*RES
1 *2228:X *1781:B 21.1893 
*END

*D_NET *632 0.00132528
*CONN
*I *1813:A I *D sky130_fd_sc_hd__xnor2_2
*I *2229:X O *D sky130_fd_sc_hd__dlygate4sd3_1
*CAP
1 *1813:A 0.000331215
2 *2229:X 0.000331215
3 *1813:A *1810:A 0.000140243
4 *1813:A *752:12 3.6236e-05
5 *1813:A *752:16 8.67814e-06
6 *1813:B *1813:A 7.7939e-05
7 *2111:D *1813:A 9.84729e-05
8 *459:43 *1813:A 2.44318e-05
9 *459:58 *1813:A 0.000276846
*RES
1 *2229:X *1813:A 35.1357 
*END

*D_NET *633 0.000205299
*CONN
*I *1780:A I *D sky130_fd_sc_hd__or2_2
*I *2230:X O *D sky130_fd_sc_hd__dlygate4sd3_1
*CAP
1 *1780:A 7.07633e-05
2 *2230:X 7.07633e-05
3 *1780:B *1780:A 2.89016e-05
4 *2086:D *1780:A 3.48705e-05
*RES
1 *2230:X *1780:A 19.9571 
*END

*D_NET *634 0.00066622
*CONN
*I *1724:B1 I *D sky130_fd_sc_hd__a21oi_2
*I *2231:X O *D sky130_fd_sc_hd__dlygate4sd3_1
*CAP
1 *1724:B1 0.000139125
2 *2231:X 0.000139125
3 *1724:B1 *1723:B1 0.000312239
4 *1724:A1 *1724:B1 7.57318e-05
*RES
1 *2231:X *1724:B1 31.6714 
*END

*D_NET *635 0.00125548
*CONN
*I *1682:B1 I *D sky130_fd_sc_hd__a21oi_2
*I *2232:X O *D sky130_fd_sc_hd__dlygate4sd3_1
*CAP
1 *1682:B1 0.000197606
2 *2232:X 0.000197606
3 *1682:B1 *1657:B 0.00025263
4 *1682:B1 *674:36 0.000141729
5 *1682:B1 *770:19 6.98302e-05
6 *1682:A1 *1682:B1 2.23592e-05
7 *359:12 *1682:B1 5.12625e-05
8 *372:14 *1682:B1 0.00032246
*RES
1 *2232:X *1682:B1 34.2607 
*END

*D_NET *636 0.00603485
*CONN
*I *2209:A I *D sky130_fd_sc_hd__dlygate4sd3_1
*I *1917:A1 I *D sky130_fd_sc_hd__a31o_2
*I *1919:A1 I *D sky130_fd_sc_hd__a31o_2
*I *1920:B I *D sky130_fd_sc_hd__and3_2
*I *2280:A I *D sky130_fd_sc_hd__clkdlybuf4s25_1
*I *2042:Q O *D sky130_fd_sc_hd__dfxtp_2
*CAP
1 *2209:A 0
2 *1917:A1 0.000412903
3 *1919:A1 0.000365624
4 *1920:B 0
5 *2280:A 0.000172539
6 *2042:Q 0.000248718
7 *636:36 0.000473775
8 *636:34 0.00108016
9 *636:20 0.000893816
10 *636:12 0.000316329
11 *1917:A1 *1917:A3 5.49544e-05
12 *1917:A1 *1997:A 0
13 *1917:A1 *670:51 8.81471e-06
14 *1917:A1 *670:62 0.000114896
15 *1919:A1 *1916:A1 7.88764e-05
16 *1919:A1 *1916:A2 3.53949e-05
17 *2280:A *1919:B1 2.54304e-06
18 *2280:A *2282:A 5.57914e-05
19 *2280:A *647:12 3.69047e-06
20 *2280:A *647:21 1.03105e-05
21 *636:12 *1915:A1 7.83659e-05
22 *636:12 *1915:A2 0.000135783
23 *636:20 *1921:A 0
24 *1802:B *636:12 0
25 *1916:B1 *1919:A1 0.000193891
26 *1919:A2 *1919:A1 2.06178e-05
27 *1929:D *1919:A1 8.61547e-06
28 *2277:A *1919:A1 9.44851e-05
29 *169:18 *636:34 0.000162911
30 *323:18 *636:34 4.22135e-06
31 *521:31 *2280:A 0.000134885
32 *521:31 *636:36 0.000268403
33 *527:8 *636:34 6.05161e-06
34 *527:8 *636:36 9.02232e-05
35 *527:17 *636:34 8.40933e-05
36 *528:20 *1917:A1 2.47833e-05
37 *528:20 *636:20 9.94831e-05
38 *528:20 *636:34 0.000292849
39 *625:16 *636:20 0
40 *625:16 *636:34 6.05161e-06
*RES
1 *2042:Q *636:12 22.9071 
2 *636:12 *636:20 2.23214 
3 *636:20 *636:34 16.25 
4 *636:34 *636:36 4.23214 
5 *636:36 *2280:A 21.6036 
6 *636:36 *1920:B 9.3 
7 *636:34 *1919:A1 25.7107 
8 *636:20 *1917:A1 16.1571 
9 *636:12 *2209:A 9.3 
*END

*D_NET *637 0.000593022
*CONN
*I *1899:A1 I *D sky130_fd_sc_hd__o21a_2
*I *2233:X O *D sky130_fd_sc_hd__dlygate4sd3_1
*CAP
1 *1899:A1 0.000223861
2 *2233:X 0.000223861
3 *1899:A1 *1888:A 0
4 *1876:A2 *1899:A1 5.80706e-06
5 *1898:A1 *1899:A1 7.15962e-05
6 *1899:A2 *1899:A1 5.33978e-05
7 *1899:B1 *1899:A1 1.00375e-05
8 *492:87 *1899:A1 4.46186e-06
*RES
1 *2233:X *1899:A1 31.3143 
*END

*D_NET *638 0.00227544
*CONN
*I *1907:A1 I *D sky130_fd_sc_hd__o21a_2
*I *2234:X O *D sky130_fd_sc_hd__dlygate4sd3_1
*CAP
1 *1907:A1 0.000586655
2 *2234:X 0.000586655
3 *1907:A1 *1906:B1 0
4 *1907:A1 *1915:A1 0
5 *1906:A2 *1907:A1 0.000294773
6 *1907:A2 *1907:A1 0.00041706
7 *1907:B1 *1907:A1 2.99527e-05
8 *1915:B1 *1907:A1 0
9 *1916:B1 *1907:A1 0.000118488
10 *2041:D *1907:A1 0.000109671
11 *522:16 *1907:A1 1.72894e-05
12 *528:20 *1907:A1 3.3301e-05
13 *535:351 *1907:A1 8.15939e-05
14 *625:16 *1907:A1 0
*RES
1 *2234:X *1907:A1 41.9214 
*END

*D_NET *639 0.000548574
*CONN
*I *1767:B1 I *D sky130_fd_sc_hd__o21a_2
*I *2235:X O *D sky130_fd_sc_hd__dlygate4sd3_1
*CAP
1 *1767:B1 9.19344e-05
2 *2235:X 9.19344e-05
3 *1767:B1 *701:24 0.000266238
4 *1767:A2 *1767:B1 9.84673e-05
*RES
1 *2235:X *1767:B1 21.1893 
*END

*D_NET *640 0.00102436
*CONN
*I *1864:A I *D sky130_fd_sc_hd__nor2_2
*I *2236:X O *D sky130_fd_sc_hd__dlygate4sd3_1
*CAP
1 *1864:A 0.000396579
2 *2236:X 0.000396579
3 *1864:A *2293:A 1.92905e-05
4 pcRegister[9] *1864:A 5.71472e-05
5 *1864:B *1864:A 0.000154762
6 *2024:D *1864:A 0
*RES
1 *2236:X *1864:A 33.3679 
*END

*D_NET *641 0.00176356
*CONN
*I *1723:B1 I *D sky130_fd_sc_hd__a21oi_2
*I *2237:X O *D sky130_fd_sc_hd__dlygate4sd3_1
*CAP
1 *1723:B1 0.000425974
2 *2237:X 0.000425974
3 *1723:B1 *1751:A_N 0.0004101
4 *1723:B1 *1751:B 9.59983e-05
5 *1723:B1 *2237:A 1.84776e-05
6 *1723:B1 *731:72 0
7 *1723:B1 *731:124 7.47942e-05
8 *1724:B1 *1723:B1 0.000312239
*RES
1 *2237:X *1723:B1 38.1357 
*END

*D_NET *642 0.000670409
*CONN
*I *1694:A I *D sky130_fd_sc_hd__xor2_2
*I *2238:X O *D sky130_fd_sc_hd__dlygate4sd3_1
*CAP
1 *1694:A 0.000266556
2 *2238:X 0.000266556
3 *1694:A *700:59 0
4 *2071:D *1694:A 5.56943e-05
5 *542:43 *1694:A 8.16036e-05
*RES
1 *2238:X *1694:A 32.5464 
*END

*D_NET *643 0.000153489
*CONN
*I *1713:A1 I *D sky130_fd_sc_hd__o31ai_2
*I *2239:X O *D sky130_fd_sc_hd__dlygate4sd3_1
*CAP
1 *1713:A1 2.3401e-05
2 *2239:X 2.3401e-05
3 *1713:B1 *1713:A1 5.33433e-05
4 *404:16 *1713:A1 5.33433e-05
*RES
1 *2239:X *1713:A1 19.5464 
*END

*D_NET *644 0.000442982
*CONN
*I *1857:A1 I *D sky130_fd_sc_hd__o21a_2
*I *2240:X O *D sky130_fd_sc_hd__dlygate4sd3_1
*CAP
1 *1857:A1 6.43524e-05
2 *2240:X 6.43524e-05
3 *1857:A1 *1978:A 5.33005e-05
4 *1857:A2 *1857:A1 7.91806e-05
5 *1886:B *1857:A1 0.000181796
*RES
1 *2240:X *1857:A1 20.7964 
*END

*D_NET *645 0.00125976
*CONN
*I *1702:B1 I *D sky130_fd_sc_hd__a21oi_2
*I *2241:X O *D sky130_fd_sc_hd__dlygate4sd3_1
*CAP
1 *1702:B1 0.000301798
2 *2241:X 0.000301798
3 *1702:B1 *1702:A1 0.000185118
4 *1702:B1 *696:80 0
5 *1703:A *1702:B1 0.000372839
6 *1705:A *1702:B1 9.82079e-05
*RES
1 *2241:X *1702:B1 34.9393 
*END

*D_NET *646 0.00147108
*CONN
*I *1788:B2 I *D sky130_fd_sc_hd__a221o_2
*I *2242:X O *D sky130_fd_sc_hd__dlygate4sd3_1
*CAP
1 *1788:B2 0.000437864
2 *2242:X 0.000437864
3 *1788:B2 *1788:A1 2.84269e-05
4 *1773:A *1788:B2 0
5 *1788:A2 *1788:B2 0.000146171
6 *445:18 *1788:B2 0.000399547
7 *545:8 *1788:B2 2.12087e-05
*RES
1 *2242:X *1788:B2 34.0643 
*END

*D_NET *647 0.0030028
*CONN
*I *1919:B1 I *D sky130_fd_sc_hd__a31o_2
*I *1920:A I *D sky130_fd_sc_hd__and3_2
*I *2281:A I *D sky130_fd_sc_hd__clkdlybuf4s25_1
*I *2043:Q O *D sky130_fd_sc_hd__dfxtp_2
*CAP
1 *1919:B1 0.000459496
2 *1920:A 0
3 *2281:A 0
4 *2043:Q 0.000326456
5 *647:21 0.000502803
6 *647:12 0.000369763
7 *1919:B1 *1926:A 5.50052e-05
8 *1919:B1 *2288:A 0.000138776
9 *647:12 *2282:A 0.000225864
10 red[2] *647:12 0
11 *1918:A *1919:B1 0.000117151
12 *1919:A2 *1919:B1 0.000424021
13 *1922:B *1919:B1 0.00031306
14 *1931:C *1919:B1 2.23393e-05
15 *2122:SET_B *1919:B1 9.22052e-06
16 *2276:A *647:12 0
17 *2277:A *1919:B1 0
18 *2278:A *647:12 0
19 *2280:A *1919:B1 2.54304e-06
20 *2280:A *647:12 3.69047e-06
21 *2280:A *647:21 1.03105e-05
22 *521:31 *1919:B1 2.22999e-05
23 *521:31 *647:12 0
*RES
1 *2043:Q *647:12 24.4429 
2 *647:12 *2281:A 9.3 
3 *647:12 *647:21 0.964286 
4 *647:21 *1920:A 9.3 
5 *647:21 *1919:B1 29.2821 
*END

*D_NET *648 0.0006844
*CONN
*I *1915:A1 I *D sky130_fd_sc_hd__o21a_2
*I *2243:X O *D sky130_fd_sc_hd__dlygate4sd3_1
*CAP
1 *1915:A1 0.000257501
2 *2243:X 0.000257501
3 *1915:A1 *1915:A2 8.17815e-05
4 red[4] *1915:A1 0
5 *1802:A *1915:A1 9.25014e-06
6 *1802:B *1915:A1 0
7 *1907:A1 *1915:A1 0
8 *2220:A *1915:A1 0
9 *636:12 *1915:A1 7.83659e-05
*RES
1 *2243:X *1915:A1 32.9214 
*END

*D_NET *649 0.00143905
*CONN
*I *1757:A1 I *D sky130_fd_sc_hd__mux2_1
*I *2244:X O *D sky130_fd_sc_hd__dlygate4sd3_1
*CAP
1 *1757:A1 0.000252463
2 *2244:X 0.000252463
3 *1757:A1 *1750:C_N 0.000405952
4 *1757:A1 *712:25 5.61616e-05
5 *1757:A0 *1757:A1 5.52238e-05
6 *433:12 *1757:A1 9.25014e-06
7 *436:12 *1757:A1 0.000407535
*RES
1 *2244:X *1757:A1 34.85 
*END

*D_NET *650 0.00145092
*CONN
*I *1836:A I *D sky130_fd_sc_hd__or4b_2
*I *2245:X O *D sky130_fd_sc_hd__dlygate4sd3_1
*CAP
1 *1836:A 0.000454006
2 *2245:X 0.000454006
3 *1659:B *1836:A 0.000125724
4 *1835:B1 *1836:A 2.42516e-05
5 *1835:C1 *1836:A 0.000260574
6 *1836:C *1836:A 6.42242e-05
7 *366:23 *1836:A 6.81335e-05
*RES
1 *2245:X *1836:A 34.2964 
*END

*D_NET *651 0.00560147
*CONN
*I *1925:B1 I *D sky130_fd_sc_hd__a31o_2
*I *2246:X O *D sky130_fd_sc_hd__dlygate4sd3_1
*CAP
1 *1925:B1 0.00120852
2 *2246:X 0.00120852
3 *1925:B1 *1925:A2 9.4607e-05
4 *1925:B1 *2011:A 8.28092e-05
5 *1925:B1 *2121:D 4.13122e-06
6 red[1] *1925:B1 0.000392582
7 *1650:B *1925:B1 7.72233e-06
8 *1922:A *1925:B1 1.06305e-05
9 *1922:C *1925:B1 0.000106299
10 *1925:A3 *1925:B1 4.2855e-05
11 *1931:C *1925:B1 0.0017467
12 *2044:CLK *1925:B1 0.000153295
13 *2045:D *1925:B1 0.000272539
14 *2122:SET_B *1925:B1 0.000257047
15 *278:22 *1925:B1 1.31942e-05
*RES
1 *2246:X *1925:B1 42.4983 
*END

*D_NET *652 0.00101663
*CONN
*I *1806:A I *D sky130_fd_sc_hd__xnor2_2
*I *2247:X O *D sky130_fd_sc_hd__dlygate4sd3_1
*CAP
1 *1806:A 0.000180865
2 *2247:X 0.000180865
3 *1806:A *687:36 0.000171954
4 *1806:A *687:47 0.000139202
5 *360:21 *1806:A 0.000311156
6 *362:26 *1806:A 3.25872e-05
*RES
1 *2247:X *1806:A 33.0286 
*END

*D_NET *653 0.000800045
*CONN
*I *1764:A I *D sky130_fd_sc_hd__and2_2
*I *2248:X O *D sky130_fd_sc_hd__dlygate4sd3_1
*CAP
1 *1764:A 0.000316731
2 *2248:X 0.000316731
3 *1764:A *712:42 3.67142e-05
4 *1764:A *731:124 0.000129868
5 *437:23 *1764:A 0
*RES
1 *2248:X *1764:A 32.2429 
*END

*D_NET *654 0.000176436
*CONN
*I *1890:A I *D sky130_fd_sc_hd__nor2_2
*I *2249:X O *D sky130_fd_sc_hd__dlygate4sd3_1
*CAP
1 *1890:A 5.01376e-05
2 *2249:X 5.01376e-05
3 *2033:CLK *1890:A 5.33005e-05
4 *2249:A *1890:A 2.28598e-05
*RES
1 *2249:X *1890:A 19.5464 
*END

*D_NET *655 0.00124426
*CONN
*I *1929:A I *D sky130_fd_sc_hd__nand4_2
*I *2250:X O *D sky130_fd_sc_hd__dlygate4sd3_1
*CAP
1 *1929:A 0.000208656
2 *2250:X 0.000208656
3 *1929:A *1619:A 5.50052e-05
4 *1929:B *1929:A 5.33005e-05
5 *1930:A1 *1929:A 0.000471469
6 *527:8 *1929:A 0.000123313
7 *527:17 *1929:A 0.000123861
*RES
1 *2250:X *1929:A 24.4929 
*END

*D_NET *656 0.000518224
*CONN
*I *1826:A1 I *D sky130_fd_sc_hd__a21oi_2
*I *2251:X O *D sky130_fd_sc_hd__dlygate4sd3_1
*CAP
1 *1826:A1 0.000152917
2 *2251:X 0.000152917
3 *1826:A1 *688:27 9.41642e-05
4 *1631:C *1826:A1 1.76039e-05
5 *1826:A2 *1826:A1 2.39779e-05
6 *1827:B *1826:A1 7.6644e-05
*RES
1 *2251:X *1826:A1 30.1893 
*END

*D_NET *657 0.00185449
*CONN
*I *1916:A1 I *D sky130_fd_sc_hd__a21oi_2
*I *2252:X O *D sky130_fd_sc_hd__dlygate4sd3_1
*CAP
1 *1916:A1 0.000491998
2 *2252:X 0.000491998
3 *1916:A1 *1916:A2 0
4 *1916:A1 *2285:A 3.45354e-05
5 *1907:B1 *1916:A1 0.000116971
6 *1916:B1 *1916:A1 0
7 *1918:A *1916:A1 5.33005e-05
8 *1919:A1 *1916:A1 7.88764e-05
9 *1930:A1 *1916:A1 5.36422e-05
10 *1931:B *1916:A1 4.29155e-05
11 *2038:D *1916:A1 7.29712e-05
12 *2046:CLK *1916:A1 0.000131261
13 *2277:A *1916:A1 0.00011968
14 *521:31 *1916:A1 5.40293e-05
15 *547:52 *1916:A1 2.37898e-05
16 *547:65 *1916:A1 4.75428e-05
17 *547:71 *1916:A1 2.26644e-05
18 *625:20 *1916:A1 1.83136e-05
*RES
1 *2252:X *1916:A1 38.0286 
*END

*D_NET *658 0.00959818
*CONN
*I *1925:A1 I *D sky130_fd_sc_hd__a31o_2
*I *1923:A1 I *D sky130_fd_sc_hd__a31o_2
*I *1926:B I *D sky130_fd_sc_hd__and2_2
*I *2282:A I *D sky130_fd_sc_hd__clkdlybuf4s25_1
*I *2184:A I *D sky130_fd_sc_hd__dlygate4sd3_1
*I *2044:Q O *D sky130_fd_sc_hd__dfxtp_2
*CAP
1 *1925:A1 0.000799178
2 *1923:A1 0.000191176
3 *1926:B 0
4 *2282:A 0.000262212
5 *2184:A 0.000279976
6 *2044:Q 0.000218539
7 *658:40 0.000376673
8 *658:36 0.0019643
9 *658:21 0.00154594
10 *658:6 0.000802616
11 *1923:A1 *2285:A 1.90484e-05
12 *1923:A1 *2288:A 0.000286043
13 *1923:A1 *670:87 0
14 *1923:A1 *670:100 1.38323e-05
15 *1923:A1 *670:115 7.38985e-05
16 *1925:A1 *1930:B1 0.000114243
17 *1925:A1 *2121:D 6.82912e-05
18 *2184:A *2284:A 0.000311229
19 *658:36 *1930:B1 2.24405e-05
20 *658:40 *2250:A 4.68045e-05
21 *658:40 *2285:A 7.92333e-05
22 *658:40 *670:87 0
23 Hsync *2184:A 2.84026e-05
24 Vsync *2184:A 3.18747e-05
25 pcRegister[31] *2184:A 0.000189867
26 red[1] *658:6 2.47809e-05
27 red[1] *658:21 2.31777e-05
28 *1922:A *658:36 9.44309e-06
29 *1922:B *2184:A 0.000185118
30 *1922:C *2184:A 0
31 *1924:B1 *1923:A1 3.07351e-05
32 *1925:A3 *1925:A1 5.65955e-05
33 *2046:D *658:36 0.000168165
34 *2121:SET_B *1925:A1 4.87868e-05
35 *2277:A *658:36 1.96648e-05
36 *2280:A *2282:A 5.57914e-05
37 *169:79 *658:36 0.000174887
38 *278:22 *658:21 0.000126968
39 *278:22 *658:36 0.000226202
40 *323:18 *2282:A 0.000227912
41 *521:31 *2282:A 0
42 *527:30 *1923:A1 0.000181107
43 *549:55 *1925:A1 6.01446e-05
44 *549:68 *1925:A1 2.70242e-05
45 *625:39 *2282:A 0
46 *647:12 *2282:A 0.000225864
*RES
1 *2044:Q *658:6 11.8893 
2 *658:6 *2184:A 25.6571 
3 *658:6 *658:21 3.82143 
4 *658:21 *2282:A 24.8536 
5 *658:21 *658:36 12.0357 
6 *658:36 *658:40 7.96429 
7 *658:40 *1926:B 13.8 
8 *658:40 *1923:A1 18.8179 
9 *658:36 *1925:A1 19.6929 
*END

*D_NET *659 0.009765
*CONN
*I *1846:A1 I *D sky130_fd_sc_hd__a21oi_2
*I *1847:A2 I *D sky130_fd_sc_hd__a31o_2
*I *1844:A1 I *D sky130_fd_sc_hd__a21oi_2
*I *1845:A1 I *D sky130_fd_sc_hd__o21a_2
*I *1849:A2 I *D sky130_fd_sc_hd__a31oi_2
*I *1850:C I *D sky130_fd_sc_hd__and4_2
*I *2283:A I *D sky130_fd_sc_hd__clkdlybuf4s25_1
*I *1852:D I *D sky130_fd_sc_hd__and4_2
*I *2017:Q O *D sky130_fd_sc_hd__dfxtp_2
*CAP
1 *1846:A1 0.00041651
2 *1847:A2 0
3 *1844:A1 0
4 *1845:A1 0
5 *1849:A2 0.000214877
6 *1850:C 4.28159e-05
7 *2283:A 0
8 *1852:D 7.30732e-05
9 *2017:Q 0
10 *659:82 0.000571533
11 *659:44 0.00056994
12 *659:38 0.000358357
13 *659:36 7.61434e-05
14 *659:32 0.000279611
15 *659:14 0.000859954
16 *659:4 0.000881435
17 *1846:A1 *1847:A1 3.90506e-05
18 *1846:A1 *1847:B1 9.12695e-05
19 *1849:A2 *1847:A1 0
20 *1849:A2 *1850:A 0.000314966
21 *1849:A2 *2290:A 3.09889e-05
22 *1849:A2 *662:14 0
23 *1850:C *1850:B 2.59355e-05
24 *1852:D *666:22 5.04705e-05
25 *659:14 *1856:B1 1.19309e-05
26 *659:14 *666:22 6.62783e-05
27 *659:14 *678:16 0
28 *659:32 *1844:B1 0
29 *659:32 *678:28 0
30 *659:36 *1847:A1 1.74352e-05
31 *659:38 *1847:A1 9.02916e-05
32 *659:44 *1847:A1 0.000576146
33 *659:44 *1850:B 7.6507e-05
34 *659:44 *662:29 0.000140289
35 *659:82 *1847:A1 4.05076e-05
36 *1733:B *1846:A1 4.7812e-05
37 *1845:A2 *659:36 0
38 *1845:A2 *659:44 3.49011e-05
39 *1845:B1 *659:38 5.52302e-05
40 *1846:B1 *1846:A1 0.000162152
41 *1846:B1 *659:36 5.52238e-05
42 *1846:B1 *659:38 0.000114655
43 *1846:B1 *659:44 0.000190926
44 *1846:B1 *659:82 0.000803539
45 *1847:A3 *659:82 0.000612569
46 *1849:A3 *1849:A2 0.000395796
47 *1850:D *1850:C 5.49489e-05
48 *1856:A2 *659:14 2.8266e-06
49 *2020:CLK *1852:D 0.000358971
50 *2064:RESET_B *659:14 8.82593e-05
51 *254:14 *1852:D 0.000492333
52 *254:14 *659:14 0.00018372
53 *447:30 *659:14 0
54 *447:30 *659:32 5.78912e-05
55 *478:20 *1846:A1 2.23592e-05
56 *479:18 *659:14 9.67754e-05
57 *481:14 *1850:C 1.03037e-05
58 *481:14 *659:44 7.49387e-06
59 *536:10 *659:14 0
*RES
1 *2017:Q *659:4 9.3 
2 *659:4 *659:14 22.4643 
3 *659:14 *1852:D 13.9429 
4 *659:14 *2283:A 9.3 
5 *659:4 *659:32 10.6429 
6 *659:32 *659:36 0.964286 
7 *659:36 *659:38 2.17857 
8 *659:38 *659:44 9.71429 
9 *659:44 *1850:C 10.2464 
10 *659:44 *1849:A2 24.6571 
11 *659:38 *1845:A1 9.3 
12 *659:36 *1844:A1 9.3 
13 *659:32 *659:82 8.41964 
14 *659:82 *1847:A2 9.3 
15 *659:82 *1846:A1 16.9518 
*END

*D_NET *660 0.00592016
*CONN
*I *1926:A I *D sky130_fd_sc_hd__and2_2
*I *2246:A I *D sky130_fd_sc_hd__dlygate4sd3_1
*I *2284:A I *D sky130_fd_sc_hd__clkdlybuf4s25_1
*I *2045:Q O *D sky130_fd_sc_hd__dfxtp_2
*CAP
1 *1926:A 0.000421426
2 *2246:A 1.21804e-05
3 *2284:A 0.000317644
4 *2045:Q 0.000164157
5 *660:27 0.000725793
6 *660:6 0.000773989
7 *1926:A *1923:B1 0.000133351
8 *1926:A *1927:B1 5.33005e-05
9 *1926:A *2288:A 0.00114686
10 *2246:A *2288:A 5.49489e-05
11 pcRegister[28] *2284:A 7.86956e-05
12 pcRegister[31] *2284:A 4.22135e-06
13 *1919:B1 *1926:A 5.50052e-05
14 *1922:A *2284:A 0
15 *1922:A *660:6 0.000119279
16 *1922:A *660:27 0.000140681
17 *1922:B *1926:A 0.00031571
18 *1922:B *2246:A 5.49489e-05
19 *1924:B1 *1926:A 3.11713e-05
20 *1929:D *1926:A 4.37451e-05
21 *2043:D *2284:A 0
22 *2122:SET_B *1926:A 0.000705016
23 *2184:A *2284:A 0.000311229
24 *2278:A *2284:A 9.15842e-06
25 *278:22 *1926:A 8.53787e-05
26 *527:23 *1926:A 0.00016227
*RES
1 *2045:Q *660:6 11.4786 
2 *660:6 *2284:A 25.2464 
3 *660:6 *660:27 13.2321 
4 *660:27 *2246:A 9.83571 
5 *660:27 *1926:A 43.4786 
*END

*D_NET *661 0.00426925
*CONN
*I *1930:B1 I *D sky130_fd_sc_hd__a31o_2
*I *2285:A I *D sky130_fd_sc_hd__clkdlybuf4s25_1
*I *2250:A I *D sky130_fd_sc_hd__dlygate4sd3_1
*I *2046:Q O *D sky130_fd_sc_hd__dfxtp_2
*CAP
1 *1930:B1 0.000345298
2 *2285:A 0.000639193
3 *2250:A 0.000141802
4 *2046:Q 0
5 *661:6 0.000780995
6 *661:4 0.000345298
7 *1930:B1 *670:87 5.60525e-05
8 *2250:A *1619:A 9.84729e-05
9 *2250:A *670:70 0
10 *2250:A *688:87 0.00021179
11 *2285:A *1916:A2 6.29289e-05
12 *2285:A *688:87 0.000113615
13 *1916:A1 *2285:A 3.45354e-05
14 *1918:A *2285:A 5.02723e-05
15 *1921:B *2250:A 0.00010096
16 *1923:A1 *2285:A 1.90484e-05
17 *1924:B1 *2285:A 5.29529e-05
18 *1925:A1 *1930:B1 0.000114243
19 *1928:A_N *1930:B1 5.66971e-05
20 *1929:D *2285:A 0.000347095
21 *1930:A1 *1930:B1 5.16542e-05
22 *1930:A3 *1930:B1 9.84729e-05
23 *2045:D *2285:A 0.000100037
24 *2277:A *1930:B1 0.000226279
25 *278:22 *2285:A 2.13481e-06
26 *527:23 *2285:A 1.59405e-05
27 *547:71 *2285:A 5.49995e-05
28 *658:36 *1930:B1 2.24405e-05
29 *658:40 *2250:A 4.68045e-05
30 *658:40 *2285:A 7.92333e-05
*RES
1 *2046:Q *661:4 9.3 
2 *661:4 *661:6 4.5 
3 *661:6 *2250:A 17.6036 
4 *661:6 *2285:A 24.6214 
5 *661:4 *1930:B1 26.55 
*END

*D_NET *662 0.00773534
*CONN
*I *2286:A I *D sky130_fd_sc_hd__clkdlybuf4s25_1
*I *1852:C I *D sky130_fd_sc_hd__and4_2
*I *1849:A1 I *D sky130_fd_sc_hd__a31oi_2
*I *2224:A I *D sky130_fd_sc_hd__dlygate4sd3_1
*I *1850:B I *D sky130_fd_sc_hd__and4_2
*I *1847:A1 I *D sky130_fd_sc_hd__a31o_2
*I *2018:Q O *D sky130_fd_sc_hd__dfxtp_2
*CAP
1 *2286:A 0.000122907
2 *1852:C 0
3 *1849:A1 3.54753e-05
4 *2224:A 0
5 *1850:B 7.57817e-05
6 *1847:A1 0.00114108
7 *2018:Q 4.17337e-05
8 *662:60 0.00050404
9 *662:45 0.000502855
10 *662:29 0.000131395
11 *662:14 0.00143777
12 *662:8 0.000369059
13 *1849:A1 *2191:A 9.83388e-05
14 *2286:A *1865:D 2.8266e-06
15 *2286:A *666:41 4.03318e-05
16 *662:14 *1850:A 0
17 *662:60 *1852:B 0.000424852
18 *662:60 *2290:A 0.000454466
19 *662:60 *666:41 0.000112181
20 *1845:B1 *1847:A1 5.71472e-05
21 *1845:B1 *662:14 0
22 *1846:A1 *1847:A1 3.90506e-05
23 *1847:A3 *1847:A1 0.000493655
24 *1848:A *1849:A1 2.59355e-05
25 *1848:A *662:14 9.11048e-06
26 *1848:A *662:45 6.63763e-05
27 *1849:A2 *1847:A1 0
28 *1849:A2 *662:14 0
29 *1850:C *1850:B 2.59355e-05
30 *2018:CLK *662:8 2.85321e-05
31 *254:14 *2286:A 8.76257e-05
32 *254:14 *662:60 9.60939e-05
33 *481:14 *1850:B 9.63908e-05
34 *481:14 *662:14 0
35 *481:14 *662:29 0.000147492
36 *482:8 *2286:A 0.000125731
37 *659:36 *1847:A1 1.74352e-05
38 *659:38 *1847:A1 9.02916e-05
39 *659:44 *1847:A1 0.000576146
40 *659:44 *1850:B 7.6507e-05
41 *659:44 *662:29 0.000140289
42 *659:82 *1847:A1 4.05076e-05
*RES
1 *2018:Q *662:8 14.3357 
2 *662:8 *662:14 3.82143 
3 *662:14 *1847:A1 30.5679 
4 *662:14 *662:29 7.08929 
5 *662:29 *1850:B 11.4964 
6 *662:29 *2224:A 9.3 
7 *662:8 *662:45 1.64286 
8 *662:45 *1849:A1 14.7464 
9 *662:45 *662:60 13.7679 
10 *662:60 *1852:C 9.3 
11 *662:60 *2286:A 20.8893 
*END

*D_NET *663 0.00442123
*CONN
*I *1852:B I *D sky130_fd_sc_hd__and4_2
*I *2191:A I *D sky130_fd_sc_hd__dlygate4sd3_1
*I *1850:A I *D sky130_fd_sc_hd__and4_2
*I *2287:A I *D sky130_fd_sc_hd__clkdlybuf4s25_1
*I *2019:Q O *D sky130_fd_sc_hd__dfxtp_2
*CAP
1 *1852:B 0.000327074
2 *2191:A 0.000180698
3 *1850:A 0.000332615
4 *2287:A 6.64553e-05
5 *2019:Q 0
6 *663:25 0.0006635
7 *663:8 0.000245561
8 *663:4 0.000355993
9 *1850:A *2290:A 7.21081e-06
10 *1852:B *1854:A 0.000141729
11 *1852:B *2291:A 0
12 *1852:B *665:12 6.24469e-05
13 *2191:A *2290:A 9.33439e-05
14 *663:8 *1854:A 5.49544e-05
15 *663:25 *2290:A 4.50916e-05
16 *1848:A *2191:A 0.000103017
17 *1849:A1 *2191:A 9.83388e-05
18 *1849:A2 *1850:A 0.000314966
19 *1849:B1 *2191:A 0.000271439
20 *1851:B *2191:A 0.000443618
21 *2020:CLK *1852:B 9.41642e-05
22 *254:14 *1852:B 9.41642e-05
23 *662:14 *1850:A 0
24 *662:60 *1852:B 0.000424852
*RES
1 *2019:Q *663:4 9.3 
2 *663:4 *663:8 5.03571 
3 *663:8 *2287:A 15.0679 
4 *663:8 *663:25 6.98214 
5 *663:25 *1850:A 24.4607 
6 *663:25 *2191:A 16.4071 
7 *663:4 *1852:B 26.1929 
*END

*D_NET *664 0.00353956
*CONN
*I *2288:A I *D sky130_fd_sc_hd__clkdlybuf4s25_1
*I *2122:Q O *D sky130_fd_sc_hd__dfstp_2
*CAP
1 *2288:A 0.00030863
2 *2122:Q 0.00030863
3 *2288:A *670:115 3.68002e-05
4 Hsync *2288:A 0.000488417
5 *1919:B1 *2288:A 0.000138776
6 *1922:B *2288:A 0.00028904
7 *1923:A1 *2288:A 0.000286043
8 *1924:B1 *2288:A 5.50052e-05
9 *1926:A *2288:A 0.00114686
10 *2122:SET_B *2288:A 0.000308531
11 *2246:A *2288:A 5.49489e-05
12 *527:30 *2288:A 0.000117881
*RES
1 *2122:Q *2288:A 35.1714 
*END

*D_NET *665 0.00172802
*CONN
*I *1852:A I *D sky130_fd_sc_hd__and4_2
*I *2172:A I *D sky130_fd_sc_hd__dlygate4sd3_1
*I *2289:A I *D sky130_fd_sc_hd__clkdlybuf4s25_1
*I *2020:Q O *D sky130_fd_sc_hd__dfxtp_2
*CAP
1 *1852:A 9.05273e-05
2 *2172:A 0
3 *2289:A 5.47527e-05
4 *2020:Q 0.000555053
5 *665:12 0.000144753
6 *665:6 0.000735581
7 *665:12 *2291:A 0
8 *1852:B *665:12 6.24469e-05
9 *2020:CLK *1852:A 4.96113e-05
10 *2020:CLK *665:6 6.05161e-06
11 *254:14 *665:6 2.92429e-05
*RES
1 *2020:Q *665:6 15.5857 
2 *665:6 *665:12 10.6429 
3 *665:12 *2289:A 10.2643 
4 *665:12 *2172:A 9.3 
5 *665:6 *1852:A 10.675 
*END

*D_NET *666 0.0106578
*CONN
*I *1859:B I *D sky130_fd_sc_hd__and3_2
*I *2240:A I *D sky130_fd_sc_hd__dlygate4sd3_1
*I *1858:A1 I *D sky130_fd_sc_hd__a21oi_2
*I *1856:A1 I *D sky130_fd_sc_hd__a21oi_2
*I *1865:D I *D sky130_fd_sc_hd__and4_2
*I *1861:C I *D sky130_fd_sc_hd__and4_2
*I *2290:A I *D sky130_fd_sc_hd__clkdlybuf4s25_1
*I *2021:Q O *D sky130_fd_sc_hd__dfxtp_2
*CAP
1 *1859:B 0
2 *2240:A 0.000105839
3 *1858:A1 5.82385e-05
4 *1856:A1 3.82418e-05
5 *1865:D 0.000458582
6 *1861:C 8.83384e-05
7 *2290:A 0.000645845
8 *2021:Q 0.000126116
9 *666:41 0.000715131
10 *666:22 0.00137429
11 *666:16 0.000955157
12 *666:10 0.000694883
13 *666:8 0.000385799
14 *666:6 0.000126116
15 *1861:C *667:18 0.000488476
16 *1865:D *1865:C 5.33005e-05
17 *1865:D *1867:A 3.70125e-05
18 *1865:D *2296:A 0.000150625
19 *1865:D *668:44 0.000173804
20 *1865:D *679:79 1.08359e-05
21 *2240:A *1881:A 7.22955e-05
22 *666:10 *1881:A 6.07232e-05
23 *666:10 *679:48 0.000162719
24 *666:16 *1711:A1 0.000149406
25 *666:16 *679:23 2.16719e-05
26 *666:16 *705:22 4.18895e-05
27 pcRegister[0] *2290:A 5.65955e-05
28 *1609:A *2240:A 1.02504e-05
29 *1710:A2 *666:16 0.000169838
30 *1710:B1_N *666:16 4.87953e-05
31 *1711:B1_N *1858:A1 5.33005e-05
32 *1713:A2 *666:10 0.000159689
33 *1849:A2 *2290:A 3.09889e-05
34 *1849:A3 *2290:A 2.59355e-05
35 *1850:A *2290:A 7.21081e-06
36 *1851:B *2290:A 5.50052e-05
37 *1852:D *666:22 5.04705e-05
38 *1853:A *1858:A1 3.97677e-05
39 *1860:B *1858:A1 6.05161e-06
40 *1867:C *1865:D 6.62702e-05
41 *2020:CLK *666:22 0.000245832
42 *2021:CLK *1865:D 0.000135028
43 *2022:CLK *1865:D 0.000145761
44 *2023:D *1865:D 3.97677e-05
45 *2063:D *666:10 9.79406e-05
46 *2065:D *666:16 0
47 *2089:RESET_B *2240:A 0.000100823
48 *2191:A *2290:A 9.33439e-05
49 *2286:A *1865:D 2.8266e-06
50 *2286:A *666:41 4.03318e-05
51 *254:14 *666:16 9.21488e-05
52 *254:14 *666:22 7.49387e-06
53 *402:8 *1858:A1 4.58194e-05
54 *402:10 *666:10 5.55449e-05
55 *402:10 *666:16 2.09413e-05
56 *404:22 *666:10 0
57 *482:8 *1865:D 0
58 *482:34 *1865:D 2.17841e-05
59 *483:18 *1858:A1 8.43535e-06
60 *483:39 *1861:C 0.000530988
61 *487:8 *666:6 0.00018372
62 *492:43 *2240:A 7.81834e-05
63 *492:43 *666:10 5.75896e-05
64 *536:8 *666:41 0
65 *536:10 *2290:A 0
66 *536:10 *666:41 0
67 *659:14 *666:22 6.62783e-05
68 *662:60 *2290:A 0.000454466
69 *662:60 *666:41 0.000112181
70 *663:25 *2290:A 4.50916e-05
*RES
1 *2021:Q *666:6 11.0679 
2 *666:6 *666:8 4.5 
3 *666:8 *666:10 6.80357 
4 *666:10 *666:16 12 
5 *666:16 *666:22 12.4464 
6 *666:22 *2290:A 26.4429 
7 *666:22 *666:41 3.16071 
8 *666:41 *1861:C 18.8536 
9 *666:41 *1865:D 23.5321 
10 *666:16 *1856:A1 10.0321 
11 *666:10 *1858:A1 15.1571 
12 *666:8 *2240:A 16.9607 
13 *666:6 *1859:B 9.3 
*END

*D_NET *667 0.00706112
*CONN
*I *1859:A I *D sky130_fd_sc_hd__and3_2
*I *1865:C I *D sky130_fd_sc_hd__and4_2
*I *2217:A I *D sky130_fd_sc_hd__dlygate4sd3_1
*I *1861:B I *D sky130_fd_sc_hd__and4_2
*I *2291:A I *D sky130_fd_sc_hd__clkdlybuf4s25_1
*I *2022:Q O *D sky130_fd_sc_hd__dfxtp_2
*CAP
1 *1859:A 0.000136824
2 *1865:C 0.000367241
3 *2217:A 0
4 *1861:B 0
5 *2291:A 0.00038021
6 *2022:Q 0
7 *667:55 0.000879037
8 *667:18 0.000673184
9 *667:12 0.000400703
10 *667:4 0.0004827
11 *667:12 *677:50 7.2754e-05
12 *667:18 *1861:A 5.68722e-05
13 pcRegister[3] *2291:A 2.06178e-05
14 pcRegister[3] *667:18 9.54798e-06
15 pcRegister[4] *2291:A 0
16 pcRegister[4] *667:18 0
17 pcRegister[5] *2291:A 3.08664e-05
18 *1852:B *2291:A 0
19 *1857:B1 *667:55 0
20 *1859:C *1859:A 0.000183726
21 *1860:B *667:18 0.000702467
22 *1860:C *667:55 0.000337644
23 *1861:C *667:18 0.000488476
24 *1863:A2 *667:55 7.05375e-05
25 *1865:D *1865:C 5.33005e-05
26 *1867:C *667:12 0.000137983
27 *1867:C *667:55 0.000142856
28 *2021:CLK *1865:C 0.000148438
29 *2021:D *1865:C 1.76204e-05
30 *2023:D *1865:C 0.000336095
31 *447:26 *667:55 3.53761e-05
32 *482:12 *667:12 0.000137983
33 *482:12 *667:55 0.000130419
34 *483:39 *667:18 0.000277986
35 *487:8 *1859:A 9.05499e-05
36 *491:8 *1865:C 4.16984e-05
37 *535:106 *667:55 0.000142336
38 *536:8 *667:12 7.50697e-05
39 *665:12 *2291:A 0
*RES
1 *2022:Q *667:4 9.3 
2 *667:4 *667:12 12.3036 
3 *667:12 *667:18 15.1071 
4 *667:18 *2291:A 20.1929 
5 *667:18 *1861:B 13.8 
6 *667:12 *2217:A 9.3 
7 *667:4 *667:55 17.1964 
8 *667:55 *1865:C 17.3893 
9 *667:55 *1859:A 12.3 
*END

*D_NET *668 0.00474137
*CONN
*I *2292:A I *D sky130_fd_sc_hd__clkdlybuf4s25_1
*I *1865:B I *D sky130_fd_sc_hd__and4_2
*I *2177:A I *D sky130_fd_sc_hd__dlygate4sd3_1
*I *1861:A I *D sky130_fd_sc_hd__and4_2
*I *2023:Q O *D sky130_fd_sc_hd__dfxtp_2
*CAP
1 *2292:A 0.000259869
2 *1865:B 0
3 *2177:A 2.22847e-05
4 *1861:A 0.000352562
5 *2023:Q 0.000138286
6 *668:44 0.000418315
7 *668:31 0.000235802
8 *668:12 0.00054592
9 *1861:A *1860:A 2.30245e-05
10 *1861:A *2296:A 2.62951e-05
11 *2292:A *2296:A 6.80581e-05
12 *2292:A *679:79 0.000100823
13 *2292:A *679:89 0.000341504
14 *2292:A *697:14 2.39656e-05
15 *668:12 *2296:A 0.000108638
16 *668:31 *1860:A 5.28427e-05
17 *668:31 *2296:A 0.000226834
18 *668:31 *677:50 3.08664e-05
19 *668:44 *1867:A 0.000180777
20 *668:44 *2296:A 0.000283099
21 *668:44 *677:50 8.61417e-05
22 *668:44 *679:79 0.000197991
23 pcRegister[4] *1861:A 0
24 *1860:B *1861:A 0
25 *1862:B *668:12 0.000226265
26 *1862:B *668:31 4.08637e-05
27 *1864:B *668:12 5.56943e-05
28 *1865:D *668:44 0.000173804
29 *1872:B *2292:A 1.84865e-05
30 *1880:A *2292:A 2.18728e-05
31 *2024:D *1861:A 0.000172085
32 *2024:D *668:12 0
33 *482:34 *2292:A 0.00019652
34 *488:10 *1861:A 0
35 *495:26 *2292:A 5.50052e-05
36 *667:18 *1861:A 5.68722e-05
*RES
1 *2023:Q *668:12 21.8179 
2 *668:12 *1861:A 24.4786 
3 *668:12 *668:31 2.17857 
4 *668:31 *2177:A 9.72857 
5 *668:31 *668:44 10.4643 
6 *668:44 *1865:B 13.8 
7 *668:44 *2292:A 21.1393 
*END

*D_NET *669 0.00148296
*CONN
*I *2236:A I *D sky130_fd_sc_hd__dlygate4sd3_1
*I *2293:A I *D sky130_fd_sc_hd__clkdlybuf4s25_1
*I *1865:A I *D sky130_fd_sc_hd__and4_2
*I *2024:Q O *D sky130_fd_sc_hd__dfxtp_2
*CAP
1 *2236:A 0
2 *2293:A 0.000207198
3 *1865:A 0.000149606
4 *2024:Q 0.000164116
5 *669:23 0.000207198
6 *669:10 0.000313722
7 *1864:A *2293:A 1.92905e-05
8 *2021:CLK *1865:A 2.59355e-05
9 *2023:D *1865:A 9.41642e-05
10 *2024:D *1865:A 0
11 *2024:D *669:10 0
12 *543:10 *669:10 3.06878e-06
13 *543:16 *669:10 4.00276e-06
14 *543:66 *1865:A 0.000170575
15 *543:66 *669:10 0.000124083
*RES
1 *2024:Q *669:10 16.3893 
2 *669:10 *1865:A 16.9964 
3 *669:10 *669:23 4.5 
4 *669:23 *2293:A 12.8536 
5 *669:23 *2236:A 9.3 
*END

*D_NET *670 0.0136926
*CONN
*I *1917:A3 I *D sky130_fd_sc_hd__a31o_2
*I *1919:A3 I *D sky130_fd_sc_hd__a31o_2
*I *1916:A2 I *D sky130_fd_sc_hd__a21oi_2
*I *1923:A2 I *D sky130_fd_sc_hd__a31o_2
*I *1927:A1 I *D sky130_fd_sc_hd__a31o_2
*I *1925:A2 I *D sky130_fd_sc_hd__a31o_2
*I *1921:A I *D sky130_fd_sc_hd__nand2_2
*I *1915:A2 I *D sky130_fd_sc_hd__o21a_2
*I *1912:B I *D sky130_fd_sc_hd__nor2_2
*I *1914:A2 I *D sky130_fd_sc_hd__a21oi_2
*I *2154:X O *D sky130_fd_sc_hd__clkdlybuf4s25_1
*CAP
1 *1917:A3 1.80221e-05
2 *1919:A3 0
3 *1916:A2 0.000156513
4 *1923:A2 0
5 *1927:A1 0
6 *1925:A2 0.00042838
7 *1921:A 1.68477e-05
8 *1915:A2 0.000223029
9 *1912:B 0.000458808
10 *1914:A2 4.21178e-05
11 *2154:X 0.000609837
12 *670:115 0.000363927
13 *670:100 0.000612396
14 *670:87 0.000647816
15 *670:70 0.00106789
16 *670:62 0.000512714
17 *670:51 0.00032783
18 *670:36 0.000933175
19 *670:23 0.00105986
20 *670:14 0.000755828
21 *1916:A2 *1923:B1 2.98551e-05
22 *1925:A2 *2011:A 0.000862639
23 *1925:A2 *687:70 5.7903e-06
24 *670:70 *1619:A 0
25 *670:70 *688:87 0
26 red[0] *1912:B 2.06112e-05
27 *1908:A1 *670:14 5.64029e-05
28 *1908:A2 *670:14 6.55528e-06
29 *1908:B1 *1912:B 0
30 *1911:B *1912:B 0.000102806
31 *1915:A1 *1915:A2 8.17815e-05
32 *1915:B1 *1915:A2 0.000254128
33 *1915:B1 *670:36 0.0005201
34 *1916:A1 *1916:A2 0
35 *1917:A1 *1917:A3 5.49544e-05
36 *1917:A1 *670:51 8.81471e-06
37 *1917:A1 *670:62 0.000114896
38 *1917:A2 *670:70 2.22674e-05
39 *1918:A *1916:A2 3.90788e-05
40 *1918:B *670:70 2.06112e-05
41 *1919:A1 *1916:A2 3.53949e-05
42 *1919:A2 *1916:A2 2.06178e-05
43 *1921:B *670:70 0
44 *1922:B *670:115 6.33589e-05
45 *1923:A1 *670:87 0
46 *1923:A1 *670:100 1.38323e-05
47 *1923:A1 *670:115 7.38985e-05
48 *1925:B1 *1925:A2 9.4607e-05
49 *1927:A2 *670:87 1.00887e-05
50 *1927:A2 *670:100 7.74068e-05
51 *1929:D *1916:A2 9.54798e-06
52 *1930:A1 *670:87 0
53 *1930:B1 *670:87 5.60525e-05
54 *1931:C *1925:A2 0.00051222
55 *2038:D *1912:B 0
56 *2042:D *1912:B 0.000292693
57 *2043:CLK *670:14 8.6724e-05
58 *2043:CLK *670:23 1.15172e-05
59 *2108:D *670:70 0.000177948
60 *2206:A *1912:B 7.10121e-05
61 *2250:A *670:70 0
62 *2275:A *670:14 0.000271904
63 *2276:A *670:14 0
64 *2277:A *1916:A2 0
65 *2279:A *1912:B 3.6152e-05
66 *2285:A *1916:A2 6.29289e-05
67 *2288:A *670:115 3.68002e-05
68 *278:22 *1916:A2 1.35465e-05
69 *521:8 *1912:B 0
70 *521:31 *1912:B 0
71 *527:30 *670:100 0.000482707
72 *528:20 *670:36 7.06479e-05
73 *528:20 *670:51 0.000203496
74 *547:8 *1912:B 6.74911e-05
75 *547:19 *1912:B 0.000104768
76 *547:30 *1912:B 2.14474e-05
77 *549:55 *670:70 0
78 *591:10 *1912:B 1.76039e-05
79 *602:21 *1912:B 3.5707e-05
80 *625:20 *1914:A2 5.7661e-06
81 *625:20 *670:23 2.89016e-05
82 *625:20 *670:36 3.97677e-05
83 *625:24 *670:23 1.39841e-05
84 *636:12 *1915:A2 0.000135783
85 *636:20 *1921:A 0
86 *658:40 *670:87 0
*RES
1 *2154:X *670:14 27.3536 
2 *670:14 *1914:A2 10.0321 
3 *670:14 *670:23 1.35714 
4 *670:23 *1912:B 29.9607 
5 *670:23 *670:36 6.69643 
6 *670:36 *1915:A2 24.4964 
7 *670:36 *670:51 3.32143 
8 *670:51 *1921:A 9.72857 
9 *670:51 *670:62 2.60714 
10 *670:62 *670:70 11.5089 
11 *670:70 *1925:A2 22.3131 
12 *670:70 *670:87 4.22321 
13 *670:87 *1927:A1 13.8 
14 *670:87 *670:100 10.5893 
15 *670:100 *1923:A2 9.3 
16 *670:100 *670:115 4 
17 *670:115 *1916:A2 21.5232 
18 *670:115 *1919:A3 9.3 
19 *670:62 *1917:A3 9.83571 
*END

*D_NET *671 0.00290865
*CONN
*I *1893:A3 I *D sky130_fd_sc_hd__a31o_2
*I *1896:D I *D sky130_fd_sc_hd__and4_2
*I *2263:X O *D sky130_fd_sc_hd__clkdlybuf4s25_1
*CAP
1 *1893:A3 0.000201602
2 *1896:D 0.000443241
3 *2263:X 3.39848e-05
4 *671:8 0.000678828
5 *1893:A3 *1890:B 0.000142336
6 *1893:A3 *1892:A 0.000119625
7 *1893:A3 *682:21 0.000290279
8 *1893:A3 *682:34 1.02504e-05
9 *1896:D *682:8 1.49188e-05
10 *671:8 *1890:B 3.92757e-05
11 *671:8 *1892:A 7.83587e-05
12 *1893:A1 *1893:A3 5.52302e-05
13 *1893:A2 *1893:A3 4.16021e-05
14 *1894:B1_N *1893:A3 0.000142856
15 *1896:A *1896:D 0.000273269
16 *2032:CLK *1896:D 0.000112965
17 *2032:D *1896:D 1.64343e-05
18 *2269:A *1896:D 3.18676e-05
19 *2270:A *1896:D 0
20 *561:37 *1896:D 0.000181723
*RES
1 *2263:X *671:8 14.8357 
2 *671:8 *1896:D 23.1571 
3 *671:8 *1893:A3 20.4429 
*END

*D_NET *672 0.00244987
*CONN
*I *1890:B I *D sky130_fd_sc_hd__nor2_2
*I *2263:A I *D sky130_fd_sc_hd__clkdlybuf4s25_1
*I *2264:X O *D sky130_fd_sc_hd__buf_1
*CAP
1 *1890:B 0.000150231
2 *2263:A 9.54593e-05
3 *2264:X 0.000278961
4 *672:10 0.00052465
5 *1890:B *1892:A 1.18451e-05
6 *2263:A *2158:A 0.00018372
7 *672:10 *1892:A 4.46186e-06
8 *1608:A *672:10 7.83587e-05
9 *1888:B *672:10 0.000138099
10 *1893:A2 *1890:B 4.73656e-05
11 *1893:A3 *1890:B 0.000142336
12 *2268:A *672:10 0
13 *560:19 *672:10 0.000246064
14 *560:34 *672:10 7.6644e-05
15 *561:16 *1890:B 0.000125731
16 *561:16 *672:10 8.98994e-05
17 *561:61 *1890:B 0.000216771
18 *671:8 *1890:B 3.92757e-05
*RES
1 *2264:X *672:10 21.1393 
2 *672:10 *2263:A 15.9786 
3 *672:10 *1890:B 18.7821 
*END

*D_NET *673 0.0050613
*CONN
*I *1690:D I *D sky130_fd_sc_hd__and4_2
*I *1704:B I *D sky130_fd_sc_hd__or2_2
*I *1689:B I *D sky130_fd_sc_hd__nand2_2
*I *1702:A2 I *D sky130_fd_sc_hd__a21oi_2
*I *2265:X O *D sky130_fd_sc_hd__clkbuf_2
*CAP
1 *1690:D 0.000527791
2 *1704:B 0
3 *1689:B 0
4 *1702:A2 0.000263597
5 *2265:X 0.000317148
6 *673:34 0.000878537
7 *673:21 0.000438558
8 *673:10 0.000668556
9 *1690:D *1690:B 0.000199934
10 *1690:D *1690:C 0.000180178
11 *1690:D *756:6 0.000137505
12 *1690:D *756:74 0.000159973
13 *673:10 *1814:A1 0
14 *673:10 *2002:A 2.21972e-05
15 *673:10 *700:84 0.000178216
16 *673:21 *1814:A1 0
17 *673:21 *700:84 0.000176234
18 *673:21 *753:56 4.35048e-05
19 *673:34 *1704:A 5.49995e-05
20 *1660:A *673:10 0
21 *1660:B *673:10 0
22 *1703:B *1690:D 9.6365e-05
23 *1705:A *1702:A2 5.45307e-05
24 *1705:B *1702:A2 6.71657e-05
25 *1705:C *1702:A2 5.33433e-05
26 *2066:D *1690:D 0
27 *2066:D *1702:A2 5.52302e-05
28 *2067:CLK *673:21 8.32454e-06
29 *2067:CLK *673:34 5.85373e-05
30 *2067:D *1690:D 9.99853e-05
31 *2067:D *673:34 5.65955e-05
32 *2113:RESET_B *673:10 0.000148189
33 *540:44 *673:10 5.35423e-05
34 *540:79 *673:10 6.25608e-05
*RES
1 *2265:X *673:10 21.1393 
2 *673:10 *1702:A2 18.8536 
3 *673:10 *673:21 2.55357 
4 *673:21 *1689:B 13.8 
5 *673:21 *673:34 10.9821 
6 *673:34 *1704:B 9.3 
7 *673:34 *1690:D 30.9786 
*END

*D_NET *674 0.00412038
*CONN
*I *1657:D I *D sky130_fd_sc_hd__nand4_2
*I *1680:A I *D sky130_fd_sc_hd__nand2_2
*I *1682:A2 I *D sky130_fd_sc_hd__a21oi_2
*I *2265:A I *D sky130_fd_sc_hd__clkbuf_2
*I *2393:X O *D sky130_fd_sc_hd__clkbuf_2
*CAP
1 *1657:D 0
2 *1680:A 0.000571253
3 *1682:A2 0
4 *2265:A 0.000135232
5 *2393:X 0.00025579
6 *674:36 0.000729063
7 *674:25 0.000262028
8 *674:12 0.00049524
9 *1680:A *1673:A_N 5.49544e-05
10 *1680:A *1964:A 0.000623689
11 *1680:A *696:61 0
12 *1680:A *757:39 0.000340857
13 *1680:A *771:20 1.98839e-05
14 *1680:A *771:44 2.71557e-05
15 *2265:A *696:61 0
16 *674:12 *755:19 0
17 *1657:C *674:36 0
18 *1673:B *1680:A 2.53558e-05
19 *1680:B *1680:A 3.08382e-06
20 *1681:A2 *1680:A 2.6304e-05
21 *1682:A1 *674:36 0.000300987
22 *1682:B1 *674:36 0.000141729
23 *1683:B *674:36 3.1367e-05
24 *2075:D *1680:A 0
25 *365:12 *674:12 0
26 *372:14 *1680:A 5.39751e-05
27 *385:10 *1680:A 8.25843e-06
28 *540:40 *2265:A 0
29 *540:44 *2265:A 1.41706e-05
*RES
1 *2393:X *674:12 22.425 
2 *674:12 *2265:A 20.8536 
3 *674:12 *674:25 1.76786 
4 *674:25 *1682:A2 9.3 
5 *674:25 *674:36 4.375 
6 *674:36 *1680:A 39.6036 
7 *674:36 *1657:D 9.3 
*END

*D_NET *675 0.00735388
*CONN
*I *2294:A I *D sky130_fd_sc_hd__clkdlybuf4s25_1
*I *1881:A I *D sky130_fd_sc_hd__or2_2
*I *1772:Y O *D sky130_fd_sc_hd__inv_2
*CAP
1 *2294:A 0.00071219
2 *1881:A 0.000672433
3 *1772:Y 0.000465988
4 *675:16 0.00185061
5 *1881:A *1873:B 0.000596133
6 *1881:A *679:48 0.00010048
7 *1881:A *697:39 1.94879e-05
8 *2294:A *677:27 0
9 *2294:A *679:10 0.000357597
10 *2294:A *679:23 0.000361468
11 *2294:A *679:48 0.00045319
12 *675:16 *677:31 0
13 *675:16 *679:48 9.43546e-06
14 *1609:A *1881:A 0.000175519
15 *1772:A *675:16 2.59355e-05
16 *1853:B *2294:A 0.000145403
17 *1855:A1 *2294:A 0.000249004
18 *1881:B *1881:A 0.000459527
19 *1885:A2 *1881:A 4.26249e-05
20 *1887:C1 *1881:A 5.78853e-05
21 *2063:CLK *675:16 1.21258e-05
22 *2089:RESET_B *1881:A 0.000101545
23 *2240:A *1881:A 7.22955e-05
24 *254:14 *2294:A 0.000110849
25 *325:10 *1881:A 9.42205e-05
26 *413:41 *1881:A 0
27 *413:41 *2294:A 0
28 *454:14 *2294:A 0
29 *479:18 *2294:A 8.44372e-05
30 *483:61 *675:16 2.04825e-05
31 *492:43 *1881:A 0
32 *492:43 *675:16 7.69776e-06
33 *496:22 *1881:A 1.92789e-05
34 *504:19 *1881:A 1.53144e-05
35 *666:10 *1881:A 6.07232e-05
*RES
1 *1772:Y *675:16 22.8775 
2 *675:16 *1881:A 33.0589 
3 *675:16 *2294:A 32.5946 
*END

*D_NET *676 0.00380512
*CONN
*I *1809:A I *D sky130_fd_sc_hd__nor3_2
*I *1816:A I *D sky130_fd_sc_hd__nor3_2
*I *2266:X O *D sky130_fd_sc_hd__clkbuf_2
*CAP
1 *1809:A 0.000584709
2 *1816:A 0.000321333
3 *2266:X 0.000169617
4 *676:10 0.00107566
5 *1809:A *751:8 6.94441e-06
6 *1809:A *751:14 6.00572e-05
7 *1809:A *752:16 0
8 *1809:A *753:32 0
9 *676:10 *1825:A 3.69047e-06
10 *676:10 *1825:B 0
11 *676:10 *685:41 0
12 *1659:D *1809:A 0.000175519
13 *1809:C *1809:A 0.000223677
14 *1811:B *1809:A 3.14003e-05
15 *1813:B *1809:A 7.48554e-05
16 *1816:C *1816:A 7.77751e-05
17 *1836:B *1809:A 0.0005642
18 *1836:B *676:10 3.51442e-05
19 *365:20 *1816:A 0.000254542
20 *366:10 *676:10 0
21 *366:23 *1809:A 0
22 *366:23 *676:10 0
23 *367:12 *676:10 4.57538e-05
24 *459:10 *1809:A 0.000100248
*RES
1 *2266:X *676:10 16.8893 
2 *676:10 *1816:A 20.1036 
3 *676:10 *1809:A 28.05 
*END

*D_NET *677 0.00766953
*CONN
*I *1952:A I *D sky130_fd_sc_hd__inv_2
*I *1862:A I *D sky130_fd_sc_hd__nor2_2
*I *1860:A I *D sky130_fd_sc_hd__nor3_2
*I *1856:B1 I *D sky130_fd_sc_hd__a21oi_2
*I *2254:A I *D sky130_fd_sc_hd__buf_4
*I *2155:X O *D sky130_fd_sc_hd__clkdlybuf4s25_1
*CAP
1 *1952:A 0.000215623
2 *1862:A 0
3 *1860:A 0.000160203
4 *1856:B1 0.000125279
5 *2254:A 2.75619e-05
6 *2155:X 0.000168084
7 *677:50 0.000944661
8 *677:31 0.00186675
9 *677:27 0.00143837
10 *677:10 0.00046138
11 *1860:A *1867:A 3.18676e-05
12 *1952:A *1707:A 6.27272e-06
13 *1952:A *705:12 1.94879e-05
14 *2254:A *678:16 2.85321e-05
15 *677:10 *738:10 0.000168638
16 *677:10 *738:29 6.93626e-06
17 *677:27 *705:16 0
18 *677:27 *738:29 6.48966e-05
19 *677:50 *1867:A 0.000104529
20 *1856:A2 *1856:B1 0
21 *1857:B1 *1856:B1 0.000113056
22 *1857:B1 *677:50 0.000342642
23 *1861:A *1860:A 2.30245e-05
24 *1863:A1 *677:50 0.000264154
25 *1863:B1 *1860:A 4.7091e-05
26 *1863:B1 *677:31 0
27 *1866:C *677:50 7.6644e-05
28 *2024:D *1860:A 0.000127246
29 *2063:CLK *677:50 2.60984e-05
30 *2294:A *677:27 0
31 *254:14 *677:10 0.000174682
32 *254:14 *677:27 0.000234297
33 *454:14 *677:27 6.52967e-05
34 *484:12 *677:10 8.16995e-05
35 *536:8 *1856:B1 0
36 *536:8 *677:50 0
37 *659:14 *1856:B1 1.19309e-05
38 *667:12 *677:50 7.2754e-05
39 *668:31 *1860:A 5.28427e-05
40 *668:31 *677:50 3.08664e-05
41 *668:44 *677:50 8.61417e-05
42 *675:16 *677:31 0
*RES
1 *2155:X *677:10 18.2286 
2 *677:10 *2254:A 14.3357 
3 *677:10 *677:27 7.86978 
4 *677:27 *677:31 5.00643 
5 *677:31 *1856:B1 16.2018 
6 *677:31 *677:50 18.6339 
7 *677:50 *1860:A 22.0321 
8 *677:50 *1862:A 9.3 
9 *677:27 *1952:A 17.9302 
*END

*D_NET *678 0.00949523
*CONN
*I *1851:A I *D sky130_fd_sc_hd__nor3_2
*I *1854:A I *D sky130_fd_sc_hd__nor2_2
*I *1953:A I *D sky130_fd_sc_hd__inv_2
*I *1946:A I *D sky130_fd_sc_hd__inv_2
*I *1847:B1 I *D sky130_fd_sc_hd__a31o_2
*I *1844:B1 I *D sky130_fd_sc_hd__a21oi_2
*I *2254:X O *D sky130_fd_sc_hd__buf_4
*CAP
1 *1851:A 0
2 *1854:A 0.000775631
3 *1953:A 2.59761e-05
4 *1946:A 0.000192635
5 *1847:B1 0.000798681
6 *1844:B1 4.1674e-05
7 *2254:X 0.000860587
8 *678:28 0.00103989
9 *678:22 0.000492854
10 *678:20 0.000207522
11 *678:18 0.000988571
12 *678:16 0.00099266
13 *678:16 *1706:A_N 1.84865e-05
14 *678:16 *1708:A_N 0.000223675
15 pcRegister[4] *1854:A 5.65955e-05
16 *1845:B1 *1844:B1 2.21972e-05
17 *1845:B1 *678:28 4.52208e-06
18 *1846:A1 *1847:B1 9.12695e-05
19 *1846:B1 *1847:B1 0.00114827
20 *1848:A *1953:A 2.85321e-05
21 *1852:B *1854:A 0.000141729
22 *1855:A1 *678:16 9.82049e-05
23 *1855:A2 *1946:A 0.000394136
24 *2017:D *678:28 0
25 *2019:D *1854:A 4.68707e-06
26 *2064:CLK *1854:A 5.23822e-05
27 *2064:RESET_B *678:18 5.72374e-05
28 *2064:RESET_B *678:20 3.75868e-05
29 *2065:CLK *678:16 7.62323e-05
30 *2065:D *678:16 9.21413e-05
31 *2254:A *678:16 2.85321e-05
32 *479:18 *1847:B1 0
33 *484:12 *1854:A 0.00026185
34 *536:10 *678:16 2.03292e-05
35 *536:12 *678:16 6.93626e-06
36 *536:12 *678:18 6.18755e-05
37 *536:20 *678:18 1.50223e-05
38 *536:20 *678:20 4.31723e-05
39 *536:20 *678:22 3.79779e-05
40 *659:14 *678:16 0
41 *659:32 *1844:B1 0
42 *659:32 *678:28 0
43 *663:8 *1854:A 5.49544e-05
*RES
1 *2254:X *678:16 27.0321 
2 *678:16 *678:18 3.16071 
3 *678:18 *678:20 1.94643 
4 *678:20 *678:22 1.94643 
5 *678:22 *678:28 2.91071 
6 *678:28 *1844:B1 14.5321 
7 *678:28 *1847:B1 34.7643 
8 *678:22 *1946:A 18.175 
9 *678:20 *1953:A 14.3357 
10 *678:18 *1854:A 26.7107 
11 *678:16 *1851:A 13.8 
*END

*D_NET *679 0.0172694
*CONN
*I *1886:A I *D sky130_fd_sc_hd__nor2_2
*I *1888:A I *D sky130_fd_sc_hd__nor2_2
*I *1878:A I *D sky130_fd_sc_hd__nor3_2
*I *1872:A I *D sky130_fd_sc_hd__nor3_2
*I *1867:A I *D sky130_fd_sc_hd__nor3_2
*I *1954:A I *D sky130_fd_sc_hd__inv_2
*I *2155:A I *D sky130_fd_sc_hd__clkdlybuf4s25_1
*I *2156:X O *D sky130_fd_sc_hd__clkdlybuf4s25_1
*CAP
1 *1886:A 0
2 *1888:A 0.000842428
3 *1878:A 0
4 *1872:A 0.000160855
5 *1867:A 0.000512498
6 *1954:A 0
7 *2155:A 6.35855e-05
8 *2156:X 0.000394988
9 *679:112 0.00140006
10 *679:89 0.000917976
11 *679:79 0.00043779
12 *679:48 0.00166569
13 *679:23 0.00105907
14 *679:10 0.000602756
15 *1888:A *702:10 0
16 *1888:A *702:12 0
17 *2155:A *738:10 0.000137639
18 *679:89 *2296:A 0.000237404
19 *679:89 *697:14 0.000111218
20 *679:112 *686:27 0.000606556
21 *679:112 *697:14 0.000222177
22 pcRegister[12] *679:112 5.7903e-06
23 pcRegister[8] *1872:A 0.00044682
24 *1710:A2 *679:23 9.25014e-06
25 *1710:A2 *679:48 0.000136156
26 *1713:A2 *679:48 0.000168939
27 *1855:A2 *679:10 0.000102146
28 *1860:A *1867:A 3.18676e-05
29 *1860:B *1867:A 2.93304e-05
30 *1860:C *1867:A 1.28171e-05
31 *1863:A1 *1867:A 9.90431e-05
32 *1863:A1 *679:48 0.000317248
33 *1863:B1 *1867:A 0
34 *1865:D *1867:A 3.70125e-05
35 *1865:D *679:79 1.08359e-05
36 *1867:B *1867:A 6.82092e-05
37 *1867:C *1867:A 0.00040015
38 *1872:B *1872:A 1.93525e-05
39 *1872:C *1872:A 2.37306e-05
40 *1875:A2 *679:112 0
41 *1875:B1 *679:112 0
42 *1876:A2 *1888:A 6.22011e-05
43 *1876:B1 *1888:A 0.000143928
44 *1878:B *1888:A 0.000338359
45 *1881:A *679:48 0.00010048
46 *1886:B *679:79 6.05161e-06
47 *1888:B *1888:A 5.46298e-05
48 *1891:A *1888:A 7.77751e-05
49 *1899:A1 *1888:A 0
50 *2022:CLK *1867:A 0.000167498
51 *2025:D *1888:A 7.32955e-05
52 *2063:CLK *679:48 0.000513591
53 *2063:D *679:48 2.59355e-05
54 *2065:D *679:23 0
55 *2065:RESET_B *679:23 0.000173448
56 *2193:A *1888:A 0.000139907
57 *2267:A *1888:A 2.14658e-05
58 *2267:A *679:112 0.000285744
59 *2292:A *679:79 0.000100823
60 *2292:A *679:89 0.000341504
61 *2294:A *679:10 0.000357597
62 *2294:A *679:23 0.000361468
63 *2294:A *679:48 0.00045319
64 *402:10 *679:48 7.64863e-05
65 *482:34 *679:79 0.000311021
66 *484:12 *2155:A 6.96806e-05
67 *492:87 *1888:A 0
68 *495:26 *1872:A 0.000358807
69 *495:26 *679:89 5.31986e-05
70 *509:10 *1888:A 3.18676e-05
71 *561:16 *1888:A 0.000443654
72 *577:10 *679:112 0.000157327
73 *666:10 *679:48 0.000162719
74 *666:16 *679:23 2.16719e-05
75 *668:44 *1867:A 0.000180777
76 *668:44 *679:79 0.000197991
77 *675:16 *679:48 9.43546e-06
78 *677:50 *1867:A 0.000104529
*RES
1 *2156:X *679:10 21.0679 
2 *679:10 *2155:A 15.5857 
3 *679:10 *679:23 4.67857 
4 *679:23 *1954:A 13.8 
5 *679:23 *679:48 24.8929 
6 *679:48 *1867:A 30.6929 
7 *679:48 *679:79 14.75 
8 *679:79 *679:89 14.75 
9 *679:89 *1872:A 15.1929 
10 *679:89 *679:112 23.5357 
11 *679:112 *1878:A 9.3 
12 *679:112 *1888:A 37.6571 
13 *679:79 *1886:A 9.3 
*END

*D_NET *680 0.00523777
*CONN
*I *2255:A I *D sky130_fd_sc_hd__buf_4
*I *2156:A I *D sky130_fd_sc_hd__clkdlybuf4s25_1
*I *1976:A I *D sky130_fd_sc_hd__inv_2
*I *1947:A I *D sky130_fd_sc_hd__inv_2
*I *2157:X O *D sky130_fd_sc_hd__clkdlybuf4s25_1
*CAP
1 *2255:A 0.000300938
2 *2156:A 0.00122002
3 *1976:A 0
4 *1947:A 5.92025e-05
5 *2157:X 0.000385949
6 *680:14 0.000192289
7 *680:10 0.00143811
8 *2156:A *731:12 4.82354e-05
9 *2255:A *2157:A 8.08608e-06
10 *680:10 *731:12 2.03801e-05
11 *680:14 *731:12 2.64731e-05
12 *1725:C *2255:A 6.23278e-05
13 *1727:A1 *680:10 2.85321e-05
14 *1727:A2 *2255:A 0.000267137
15 *1855:A2 *2156:A 7.36469e-05
16 *2058:RESET_B *2156:A 0.00043381
17 *2087:SET_B *680:14 0.000175123
18 *2099:CLK *2255:A 4.63305e-05
19 *2100:D *2255:A 0.000150917
20 *254:14 *2156:A 4.5447e-05
21 *291:22 *2156:A 2.18653e-05
22 *411:16 *680:10 3.54498e-05
23 *411:16 *680:14 5.12699e-05
24 *478:20 *2156:A 0.000134109
25 *544:77 *2156:A 1.21258e-05
*RES
1 *2157:X *680:10 15.3714 
2 *680:10 *680:14 7.96429 
3 *680:14 *1947:A 10.2464 
4 *680:14 *1976:A 9.3 
5 *680:10 *2156:A 30.925 
6 *2157:X *2255:A 32.9571 
*END

*D_NET *681 0.0128267
*CONN
*I *1974:A I *D sky130_fd_sc_hd__inv_2
*I *1975:A I *D sky130_fd_sc_hd__inv_2
*I *1978:A I *D sky130_fd_sc_hd__inv_2
*I *1973:A I *D sky130_fd_sc_hd__inv_2
*I *1933:A I *D sky130_fd_sc_hd__inv_2
*I *1977:A I *D sky130_fd_sc_hd__inv_2
*I *1950:A I *D sky130_fd_sc_hd__inv_2
*I *2255:X O *D sky130_fd_sc_hd__buf_4
*CAP
1 *1974:A 0.000146119
2 *1975:A 1.24343e-05
3 *1978:A 0.00144389
4 *1973:A 0.000533113
5 *1933:A 3.79638e-05
6 *1977:A 3.75977e-05
7 *1950:A 0.000189878
8 *2255:X 0.00041272
9 *681:76 0.00145633
10 *681:50 0.0010142
11 *681:36 0.000952136
12 *681:32 0.0012099
13 *681:19 0.00069276
14 *681:8 0.00070299
15 *1973:A *1616:A 0
16 *1974:A *694:118 0
17 *1974:A *736:10 8.22793e-06
18 *1977:A *1758:A1 9.90367e-05
19 *1978:A *2230:A 0.000119759
20 *1978:A *735:10 1.08936e-05
21 *1978:A *735:52 0
22 *681:8 *728:10 0
23 *681:8 *728:27 0
24 *681:19 *728:27 0
25 *681:32 *728:27 4.1331e-06
26 *681:32 *736:10 5.86221e-05
27 *681:50 *1788:A1 0.000123217
28 *681:50 *735:63 0
29 *1628:C *1973:A 9.42298e-05
30 *1769:B1 *681:32 0
31 *1775:A1 *1973:A 1.02301e-05
32 *1775:A1 *681:50 7.69206e-06
33 *1775:B1 *1933:A 9.99853e-05
34 *1775:B1 *1973:A 1.32056e-05
35 *1776:B *1933:A 4.73286e-05
36 *1781:A_N *681:36 0.000217466
37 *1781:A_N *681:50 1.2012e-05
38 *1788:A2 *681:32 0
39 *1857:A1 *1978:A 5.33005e-05
40 *1857:A2 *1978:A 9.41642e-05
41 *1886:B *1978:A 4.72917e-05
42 *2030:D *1978:A 1.74352e-05
43 *2060:D *1973:A 0
44 *2061:RESET_B *681:8 0
45 *2084:RESET_B *1973:A 0.000292
46 *2085:RESET_B *1974:A 0.000105872
47 *2085:RESET_B *681:32 8.68279e-05
48 *2086:CLK *1978:A 7.53208e-05
49 *2086:RESET_B *1978:A 7.02498e-05
50 *2088:D *1950:A 1.58163e-05
51 *2088:D *681:8 0
52 *2088:RESET_B *681:8 8.99419e-05
53 *2089:RESET_B *1978:A 0.000142147
54 *2091:RESET_B *1978:A 0.00017001
55 *2141:A *1978:A 5.2568e-05
56 *325:10 *1978:A 7.77751e-05
57 *340:30 *1973:A 0.000106927
58 *446:12 *681:36 2.57857e-05
59 *446:12 *681:50 2.48858e-05
60 *449:12 *681:8 0
61 *449:12 *681:19 0
62 *449:12 *681:32 0
63 *471:12 *681:8 0.000438481
64 *535:33 *681:36 0.000392755
65 *535:33 *681:50 1.89507e-06
66 *550:10 *1974:A 0
67 *550:12 *681:32 0
68 *551:24 *1973:A 0.00040015
69 *555:55 *1933:A 9.67434e-05
70 *555:55 *1973:A 3.05878e-05
71 *555:55 *681:50 5.38444e-06
72 *555:80 *1973:A 1.62025e-05
73 *555:80 *1978:A 0
74 *555:80 *681:50 0
75 *579:12 *681:8 9.25014e-06
76 *579:12 *681:19 0.00011891
*RES
1 *2255:X *681:8 23.6393 
2 *681:8 *1950:A 16.8 
3 *681:8 *681:19 2.25 
4 *681:19 *1977:A 14.7464 
5 *681:19 *681:32 10.6339 
6 *681:32 *681:36 4.9704 
7 *681:36 *681:50 12.3808 
8 *681:50 *1933:A 11.0679 
9 *681:50 *1973:A 31.3179 
10 *681:36 *681:76 3.41 
11 *681:76 *1978:A 37.7732 
12 *681:76 *1975:A 14.0768 
13 *681:32 *1974:A 16.8089 
*END

*D_NET *682 0.00666868
*CONN
*I *1994:A I *D sky130_fd_sc_hd__inv_2
*I *1906:B1 I *D sky130_fd_sc_hd__a21oi_2
*I *1897:A I *D sky130_fd_sc_hd__nor3_2
*I *2256:A I *D sky130_fd_sc_hd__buf_2
*I *1893:B1 I *D sky130_fd_sc_hd__a31o_2
*I *1892:A I *D sky130_fd_sc_hd__nor3_2
*I *2158:X O *D sky130_fd_sc_hd__clkdlybuf4s25_1
*CAP
1 *1994:A 0
2 *1906:B1 0.000606395
3 *1897:A 0
4 *2256:A 0.000179544
5 *1893:B1 0
6 *1892:A 0.000140512
7 *2158:X 0.000166853
8 *682:44 0.000320855
9 *682:42 0.0013036
10 *682:34 0.000814724
11 *682:21 0.00041479
12 *682:8 0.000463321
13 *1892:A *2158:A 5.52238e-05
14 *2256:A *683:10 1.24368e-05
15 *1828:B *682:34 0
16 *1890:B *1892:A 1.18451e-05
17 *1892:B *1892:A 0
18 *1893:A3 *1892:A 0.000119625
19 *1893:A3 *682:21 0.000290279
20 *1893:A3 *682:34 1.02504e-05
21 *1895:A1 *682:44 9.31192e-05
22 *1895:A2 *682:42 6.25491e-05
23 *1895:B1 *1906:B1 6.73181e-05
24 *1895:B1 *682:44 5.66943e-05
25 *1896:A *682:21 0
26 *1896:A *682:34 0
27 *1896:D *682:8 1.49188e-05
28 *1897:B *2256:A 4.1331e-06
29 *1897:B *682:44 5.90443e-06
30 *1906:A1 *1906:B1 2.59355e-05
31 *1906:A2 *1906:B1 0.000139907
32 *1907:A1 *1906:B1 0
33 *1907:B1 *1906:B1 7.97198e-05
34 *2032:CLK *682:8 6.81335e-05
35 *2032:D *1892:A 9.91086e-05
36 *2033:D *682:21 0
37 *2034:CLK *682:42 1.24368e-05
38 *2034:D *2256:A 5.83304e-05
39 *2034:D *682:42 4.71974e-05
40 *2034:D *682:44 0.000219464
41 *2038:D *1906:B1 0.000559589
42 *2195:A *682:34 0
43 *512:38 *2256:A 0
44 *535:351 *1906:B1 0
45 *548:12 *682:34 0
46 *562:8 *2256:A 3.69047e-06
47 *562:40 *2256:A 5.74562e-05
48 *563:12 *682:34 0
49 *671:8 *1892:A 7.83587e-05
50 *672:10 *1892:A 4.46186e-06
*RES
1 *2158:X *682:8 15.9786 
2 *682:8 *1892:A 17.4964 
3 *682:8 *682:21 3.76786 
4 *682:21 *1893:B1 13.8 
5 *682:21 *682:34 9.01786 
6 *682:34 *682:42 12.4643 
7 *682:42 *682:44 3.46429 
8 *682:44 *2256:A 16.9964 
9 *682:44 *1897:A 13.8 
10 *682:42 *1906:B1 27.6393 
11 *682:34 *1994:A 9.3 
*END

*D_NET *683 0.00660026
*CONN
*I *1912:A I *D sky130_fd_sc_hd__nor2_2
*I *1910:A I *D sky130_fd_sc_hd__nor3_2
*I *1904:A I *D sky130_fd_sc_hd__nor2_2
*I *1902:A I *D sky130_fd_sc_hd__nor3_2
*I *1898:B1 I *D sky130_fd_sc_hd__a21oi_2
*I *2256:X O *D sky130_fd_sc_hd__buf_2
*CAP
1 *1912:A 8.13171e-05
2 *1910:A 0.000294764
3 *1904:A 0
4 *1902:A 0.000329408
5 *1898:B1 0.000313445
6 *2256:X 0.000206484
7 *683:57 0.000523391
8 *683:46 0.0004545
9 *683:25 0.000853827
10 *683:10 0.000737158
11 pcRegister[22] *1910:A 5.65955e-05
12 *1899:A2 *1898:B1 4.46186e-06
13 *1902:C *1902:A 6.56312e-06
14 *1905:A2 *683:46 0
15 *1911:A *1910:A 5.22354e-05
16 *1911:B *1910:A 1.58519e-05
17 *1911:B *1912:A 0.000254036
18 *1911:C *683:57 5.58941e-05
19 *2034:CLK *683:46 8.26886e-06
20 *2035:D *1898:B1 0
21 *2036:CLK *1902:A 0.000309475
22 *2039:D *1910:A 0.000102362
23 *2199:A *1902:A 0.000125724
24 *2256:A *683:10 1.24368e-05
25 *2271:A *1902:A 2.15245e-05
26 *2271:A *683:25 5.05484e-05
27 *2274:A *1910:A 0.000141734
28 *512:14 *1898:B1 0.000105262
29 *512:38 *1898:B1 0
30 *512:38 *683:46 0
31 *512:51 *683:46 0
32 *516:18 *683:46 5.54817e-06
33 *516:18 *683:57 0.000170607
34 *546:10 *683:46 1.00332e-05
35 *546:10 *683:57 0.000186418
36 *546:12 *683:46 0.000126598
37 *546:14 *683:46 0.000131597
38 *546:16 *683:46 1.41642e-05
39 *546:79 *683:57 0.000197045
40 *564:12 *1898:B1 0
41 *564:48 *1902:A 0.000101233
42 *564:48 *683:10 0.000271352
43 *591:14 *1912:A 0.000268403
*RES
1 *2256:X *683:10 18.05 
2 *683:10 *1898:B1 19.3893 
3 *683:10 *683:25 7.60714 
4 *683:25 *1902:A 23.7643 
5 *683:25 *683:46 10.75 
6 *683:46 *1904:A 13.8 
7 *683:46 *683:57 9.48214 
8 *683:57 *1910:A 15.3357 
9 *683:57 *1912:A 12.3 
*END

*D_NET *684 0.00526009
*CONN
*I *1992:A I *D sky130_fd_sc_hd__inv_2
*I *2007:A I *D sky130_fd_sc_hd__inv_2
*I *2257:A I *D sky130_fd_sc_hd__clkbuf_4
*I *1932:A I *D sky130_fd_sc_hd__inv_2
*I *2159:X O *D sky130_fd_sc_hd__clkdlybuf4s25_1
*CAP
1 *1992:A 3.237e-05
2 *2007:A 0.00017277
3 *2257:A 0
4 *1932:A 0.000513641
5 *2159:X 0.000593961
6 *684:40 0.000392739
7 *684:12 0.000513641
8 *684:10 0.000781559
9 *1932:A *685:6 0.000391373
10 *1932:A *685:10 0.000440694
11 *2007:A *2160:A 0
12 *2007:A *2188:A 0.000108395
13 *684:10 *1623:A1 1.58163e-05
14 *684:10 *2159:A 0.000270297
15 *684:10 *688:27 1.17968e-05
16 *684:40 *688:27 0.000176417
17 *1631:B *1932:A 0.00027107
18 *1631:B *684:10 0
19 *1631:C *684:10 0
20 *1826:B1 *684:10 0
21 *1826:B1 *684:40 0
22 *2103:RESET_B *1992:A 2.28598e-05
23 *2103:RESET_B *684:40 6.05161e-06
24 *2104:D *684:10 0.00015642
25 *2118:RESET_B *2007:A 5.50052e-05
26 *341:31 *684:10 3.6592e-05
27 *345:12 *1932:A 0.000174326
28 *466:8 *1992:A 3.67257e-05
29 *466:8 *684:40 8.55687e-05
*RES
1 *2159:X *684:10 24.425 
2 *684:10 *684:12 4.5 
3 *684:12 *1932:A 30.5679 
4 *684:12 *2257:A 9.3 
5 *684:10 *684:40 8.92857 
6 *684:40 *2007:A 22.1036 
7 *684:40 *1992:A 10.2464 
*END

*D_NET *685 0.0117478
*CONN
*I *2006:A I *D sky130_fd_sc_hd__inv_2
*I *1996:A I *D sky130_fd_sc_hd__inv_2
*I *1619:A I *D sky130_fd_sc_hd__inv_2
*I *1997:A I *D sky130_fd_sc_hd__inv_2
*I *1995:A I *D sky130_fd_sc_hd__inv_2
*I *2008:A I *D sky130_fd_sc_hd__inv_2
*I *2009:A I *D sky130_fd_sc_hd__inv_2
*I *2257:X O *D sky130_fd_sc_hd__clkbuf_4
*CAP
1 *2006:A 0.000325529
2 *1996:A 0
3 *1619:A 0.000475608
4 *1997:A 8.71478e-05
5 *1995:A 0
6 *2008:A 0
7 *2009:A 0.000140089
8 *2257:X 9.99414e-05
9 *685:51 0.00132268
10 *685:41 0.00118399
11 *685:28 0.000533722
12 *685:26 0.000795972
13 *685:10 0.000301582
14 *685:6 0.000622221
15 *1619:A *688:68 3.47529e-05
16 *1997:A *688:60 5.33005e-05
17 *685:6 *1631:A 6.05161e-06
18 *685:10 *1631:A 2.59355e-05
19 *685:26 *1631:A 5.66157e-05
20 *685:41 *1825:B 0
21 *685:51 *1651:D 9.49395e-05
22 *685:51 *688:60 0.00034321
23 *685:51 *688:68 3.34366e-05
24 *685:51 *740:44 1.21258e-05
25 *1631:C *685:6 0.000112491
26 *1631:C *685:10 1.46148e-05
27 *1631:C *685:26 0
28 *1804:B *685:51 0.000532181
29 *1824:A *685:26 0.000126797
30 *1824:B *685:26 0.000519856
31 *1825:C *685:26 0
32 *1825:C *685:28 0
33 *1825:C *685:41 0
34 *1826:A2 *685:26 0.000244628
35 *1917:A1 *1997:A 0
36 *1917:A2 *685:51 0
37 *1921:B *1619:A 8.72571e-05
38 *1929:A *1619:A 5.50052e-05
39 *1930:A1 *1619:A 0.00074426
40 *1932:A *685:6 0.000391373
41 *1932:A *685:10 0.000440694
42 *2040:D *685:51 8.00806e-05
43 *2107:RESET_B *685:51 1.46231e-05
44 *2108:D *1619:A 0
45 *2108:RESET_B *1619:A 0.000100823
46 *2114:CLK *2006:A 5.71472e-05
47 *2114:CLK *685:28 8.44271e-06
48 *2114:RESET_B *685:28 0.000224243
49 *2114:RESET_B *685:41 3.51442e-05
50 *2117:RESET_B *2006:A 2.59355e-05
51 *2118:D *685:26 0.000152333
52 *2119:RESET_B *2009:A 0.000101859
53 *2250:A *1619:A 9.84729e-05
54 *345:12 *685:10 0.000185124
55 *468:14 *685:26 0.00022525
56 *468:14 *685:28 0.000125225
57 *468:14 *685:41 5.39751e-05
58 *522:16 *685:51 1.69115e-05
59 *527:17 *1619:A 0.000130443
60 *535:290 *2006:A 0.000130035
61 *549:40 *1619:A 3.67548e-05
62 *549:40 *685:51 1.08359e-05
63 *549:55 *1619:A 0.000116161
64 *670:70 *1619:A 0
65 *676:10 *685:41 0
*RES
1 *2257:X *685:6 13.1214 
2 *685:6 *685:10 5.07143 
3 *685:10 *2009:A 12.3 
4 *685:10 *2008:A 9.3 
5 *685:6 *685:26 16.1607 
6 *685:26 *685:28 3.46429 
7 *685:28 *1995:A 13.8 
8 *685:28 *685:41 12.0714 
9 *685:41 *685:51 17.9643 
10 *685:51 *1997:A 15.175 
11 *685:51 *1619:A 27.2643 
12 *685:41 *1996:A 9.3 
13 *685:26 *2006:A 19.0143 
*END

*D_NET *686 0.0080779
*CONN
*I *2295:A I *D sky130_fd_sc_hd__clkdlybuf4s25_1
*I *1870:A1 I *D sky130_fd_sc_hd__a21oi_2
*I *1873:C I *D sky130_fd_sc_hd__and3_2
*I *1871:B I *D sky130_fd_sc_hd__and3_2
*I *2180:A I *D sky130_fd_sc_hd__dlygate4sd3_1
*I *2025:Q O *D sky130_fd_sc_hd__dfxtp_2
*CAP
1 *2295:A 0
2 *1870:A1 4.207e-05
3 *1873:C 0.000160166
4 *1871:B 0.000283933
5 *2180:A 2.24049e-05
6 *2025:Q 0.00046595
7 *686:50 0.000259882
8 *686:37 0.000852637
9 *686:27 0.000856917
10 *686:12 0.000834214
11 *1873:C *1873:A 3.16805e-05
12 *686:27 *1873:A 4.99392e-05
13 *686:27 *697:14 0.000124012
14 *686:37 *2299:A 0.000369096
15 *1609:A *1871:B 0.000139907
16 *1870:A2 *1870:A1 5.49995e-05
17 *1874:A *686:12 0.000193132
18 *1875:A1 *2180:A 3.69047e-06
19 *1875:A1 *686:27 6.40185e-05
20 *1875:B1 *686:27 0
21 *1880:A *686:37 9.84729e-05
22 *1880:D *686:37 5.33005e-05
23 *2027:D *686:12 0.000187986
24 *2030:D *1871:B 0.000448049
25 *2030:D *686:37 5.33005e-05
26 *2267:A *2180:A 5.49489e-05
27 *2267:A *686:27 0.000439187
28 *492:43 *1871:B 0.000124868
29 *492:60 *1870:A1 8.63998e-05
30 *492:60 *1871:B 0.000346138
31 *492:60 *1873:C 5.33005e-05
32 *492:60 *686:50 0.000100248
33 *492:71 *1870:A1 2.53112e-06
34 *492:87 *686:27 0.000114111
35 *501:14 *686:37 0.000396124
36 *504:19 *1870:A1 1.03904e-05
37 *543:37 *686:12 0
38 *577:10 *686:27 9.33439e-05
39 *679:112 *686:27 0.000606556
*RES
1 *2025:Q *686:12 25.7821 
2 *686:12 *2180:A 9.83571 
3 *686:12 *686:27 20.6429 
4 *686:27 *686:37 16.5893 
5 *686:37 *1871:B 21.3536 
6 *686:37 *686:50 1.33929 
7 *686:50 *1873:C 15.5679 
8 *686:50 *1870:A1 15.0679 
9 *686:27 *2295:A 9.3 
*END

*D_NET *687 0.0133324
*CONN
*I *2003:A I *D sky130_fd_sc_hd__inv_2
*I *1999:A I *D sky130_fd_sc_hd__inv_2
*I *2010:A I *D sky130_fd_sc_hd__inv_2
*I *2011:A I *D sky130_fd_sc_hd__inv_2
*I *1998:A I *D sky130_fd_sc_hd__inv_2
*I *2160:X O *D sky130_fd_sc_hd__clkdlybuf4s25_1
*CAP
1 *2003:A 0
2 *1999:A 0.000156608
3 *2010:A 0.000257927
4 *2011:A 0.00185125
5 *1998:A 5.07291e-05
6 *2160:X 0.000640085
7 *687:70 0.000616958
8 *687:47 0.00217651
9 *687:36 0.000944593
10 *687:18 0.00141111
11 *1998:A *2121:D 0.000271904
12 *2011:A *1914:B1 0
13 *2011:A *688:68 0
14 *687:18 *1825:A 4.64488e-06
15 *687:36 *1649:C 0.000159086
16 *687:36 *2219:A 6.14594e-05
17 *687:36 *747:25 0
18 *687:36 *748:21 4.15281e-05
19 *687:47 *2121:D 0
20 *687:47 *750:12 0.000151613
21 *687:70 *2121:D 0
22 red[2] *2011:A 0
23 *1803:B1 *687:36 0.000149235
24 *1804:A *687:36 0.000125005
25 *1806:A *687:36 0.000171954
26 *1806:A *687:47 0.000139202
27 *1811:B *2010:A 8.71335e-05
28 *1919:A2 *2011:A 1.32536e-05
29 *1925:A2 *2011:A 0.000862639
30 *1925:A2 *687:70 5.7903e-06
31 *1925:B1 *2011:A 8.28092e-05
32 *1928:B *1999:A 0
33 *1931:C *2011:A 0.000990664
34 *2107:RESET_B *687:36 0.000174332
35 *2109:RESET_B *1998:A 0.000228514
36 *2110:D *687:70 0.000172091
37 *2110:RESET_B *1999:A 0
38 *2114:CLK *687:36 0.000186765
39 *2121:SET_B *2010:A 0.000304002
40 *2122:CLK *1999:A 0
41 *169:18 *2011:A 0
42 *278:22 *2011:A 3.29297e-05
43 *360:21 *687:36 0.00017543
44 *360:21 *687:47 5.0063e-05
45 *361:12 *2010:A 0.00029936
46 *366:10 *687:18 1.01912e-05
47 *468:14 *687:18 1.90936e-05
48 *535:290 *687:36 0.000144268
49 *549:68 *1999:A 1.17341e-05
50 *549:86 *687:36 9.99853e-05
*RES
1 *2160:X *687:18 26.8736 
2 *687:18 *687:36 23.7679 
3 *687:36 *1998:A 16.3893 
4 *687:36 *687:47 3.61607 
5 *687:47 *2011:A 26.1067 
6 *687:47 *687:70 3.91964 
7 *687:70 *2010:A 22.175 
8 *687:70 *1999:A 16.3536 
9 *687:18 *2003:A 9.3 
*END

*D_NET *688 0.0200764
*CONN
*I *2160:A I *D sky130_fd_sc_hd__clkdlybuf4s25_1
*I *1917:B1 I *D sky130_fd_sc_hd__a31o_2
*I *1927:B1 I *D sky130_fd_sc_hd__a31o_2
*I *1923:B1 I *D sky130_fd_sc_hd__a31o_2
*I *1914:B1 I *D sky130_fd_sc_hd__a21oi_2
*I *2158:A I *D sky130_fd_sc_hd__clkdlybuf4s25_1
*I *2159:A I *D sky130_fd_sc_hd__clkdlybuf4s25_1
*I *2161:X O *D sky130_fd_sc_hd__clkdlybuf4s25_1
*CAP
1 *2160:A 0.000697971
2 *1917:B1 0
3 *1927:B1 0.000219207
4 *1923:B1 0.000220727
5 *1914:B1 0.000261197
6 *2158:A 0.00101188
7 *2159:A 0.000229478
8 *2161:X 0
9 *688:87 0.000824409
10 *688:68 0.00104785
11 *688:60 0.00108723
12 *688:27 0.00276298
13 *688:8 0.00133281
14 *688:4 0.000735241
15 *688:27 *2251:A 3.18676e-05
16 *688:60 *1803:A1 7.62718e-05
17 *688:60 *1803:A2 1.86382e-05
18 *688:60 *740:25 0.000235332
19 *688:60 *740:44 0.000407159
20 red[2] *1914:B1 0.000395959
21 red[4] *688:68 0
22 *1619:A *688:68 3.47529e-05
23 *1818:A *2160:A 8.0146e-05
24 *1821:C *2160:A 0.000219134
25 *1826:A1 *688:27 9.41642e-05
26 *1826:B1 *688:27 9.90431e-05
27 *1827:B *688:27 0.000136951
28 *1828:B *2158:A 5.03772e-05
29 *1828:B *688:27 4.96254e-05
30 *1829:B *688:27 0.000584101
31 *1830:B *688:60 0.000458713
32 *1892:A *2158:A 5.52238e-05
33 *1916:A2 *1923:B1 2.98551e-05
34 *1917:A2 *688:68 1.88155e-05
35 *1918:B *1914:B1 0.000701214
36 *1918:B *688:68 0.000367895
37 *1921:B *688:87 0
38 *1924:A2 *1923:B1 2.11419e-05
39 *1926:A *1923:B1 0.000133351
40 *1926:A *1927:B1 5.33005e-05
41 *1929:D *1923:B1 4.46433e-05
42 *1929:D *1927:B1 5.9341e-05
43 *1930:A3 *1927:B1 0
44 *1997:A *688:60 5.33005e-05
45 *2007:A *2160:A 0
46 *2011:A *1914:B1 0
47 *2011:A *688:68 0
48 *2032:CLK *2158:A 0.000104236
49 *2032:D *2158:A 5.71472e-05
50 *2038:D *1914:B1 6.69871e-05
51 *2040:D *688:60 3.65015e-05
52 *2103:RESET_B *2159:A 4.06782e-05
53 *2103:RESET_B *2160:A 0
54 *2103:RESET_B *688:27 5.57914e-05
55 *2119:D *688:60 0.000222256
56 *2120:D *688:60 0.000176941
57 *2120:RESET_B *2158:A 0
58 *2120:RESET_B *688:60 0
59 *2190:A *2160:A 0.000337183
60 *2250:A *688:87 0.00021179
61 *2263:A *2158:A 0.00018372
62 *2268:A *2158:A 0.000312209
63 *2285:A *688:87 0.000113615
64 *169:18 *1914:B1 3.69173e-05
65 *278:22 *1923:B1 0.000117137
66 *323:18 *1923:B1 5.6505e-05
67 *323:18 *688:87 0
68 *335:10 *2159:A 0
69 *335:23 *2159:A 0
70 *337:12 *2159:A 0.000248616
71 *464:16 *2160:A 3.63298e-05
72 *466:8 *688:27 0.000107763
73 *468:14 *688:27 2.96677e-05
74 *509:21 *2158:A 0
75 *527:23 *688:87 0.000345793
76 *528:20 *1923:B1 2.11419e-05
77 *531:19 *1927:B1 4.86074e-05
78 *535:290 *2160:A 2.89016e-05
79 *539:35 *2160:A 6.16958e-05
80 *547:39 *1914:B1 3.10819e-05
81 *547:52 *1914:B1 4.43126e-05
82 *548:12 *2158:A 7.83366e-05
83 *548:12 *688:60 0
84 *549:12 *688:60 0.000466964
85 *549:40 *688:60 0.000570773
86 *561:16 *2158:A 3.34672e-05
87 *561:61 *2158:A 1.69115e-05
88 *670:70 *688:87 0
89 *684:10 *2159:A 0.000270297
90 *684:10 *688:27 1.17968e-05
91 *684:40 *688:27 0.000176417
92 *685:51 *688:60 0.00034321
93 *685:51 *688:68 3.34366e-05
*RES
1 *2161:X *688:4 9.3 
2 *688:4 *688:8 5.03571 
3 *688:8 *2159:A 21.2107 
4 *688:8 *688:27 23.0357 
5 *688:27 *2158:A 44.5679 
6 *688:27 *688:60 32.8393 
7 *688:60 *688:68 9.84986 
8 *688:68 *1914:B1 19.2219 
9 *688:68 *688:87 16.3832 
10 *688:87 *1923:B1 23.0321 
11 *688:87 *1927:B1 13.4429 
12 *688:60 *1917:B1 9.3 
13 *688:4 *2160:A 33.6929 
*END

*D_NET *689 0.00379656
*CONN
*I *2258:A I *D sky130_fd_sc_hd__buf_4
*I *1937:A I *D sky130_fd_sc_hd__inv_2
*I *1989:A I *D sky130_fd_sc_hd__inv_2
*I *1988:A I *D sky130_fd_sc_hd__inv_2
*I *1936:A I *D sky130_fd_sc_hd__inv_2
*I *2162:X O *D sky130_fd_sc_hd__clkdlybuf4s25_1
*CAP
1 *2258:A 0.000115475
2 *1937:A 3.23505e-05
3 *1989:A 0.000132301
4 *1988:A 0.000132258
5 *1936:A 0
6 *2162:X 0.000239678
7 *689:44 0.000308031
8 *689:17 0.000847178
9 *689:6 0.000662092
10 *689:17 *2231:A 9.40308e-05
11 *689:17 *730:6 6.82912e-05
12 *689:44 *2162:A 2.11336e-05
13 *1724:A1 *689:17 0.000174958
14 *1739:B *2258:A 3.67279e-06
15 *1752:A2 *689:17 3.32656e-05
16 *1754:B2 *689:17 7.65099e-05
17 *2048:RESET_B *2258:A 7.49346e-05
18 *2048:RESET_B *689:44 9.84673e-05
19 *2099:RESET_B *1988:A 0.000103437
20 *2100:RESET_B *1989:A 3.67279e-06
21 *434:12 *689:17 0.000163279
22 *557:14 *1937:A 1.85025e-05
23 *557:14 *2258:A 4.17661e-06
24 *557:14 *689:6 5.49544e-05
25 *557:14 *689:44 7.72042e-05
26 *557:22 *689:6 0.000185197
27 *557:22 *689:17 7.15036e-05
*RES
1 *2162:X *689:6 11.4786 
2 *689:6 *1936:A 9.3 
3 *689:6 *689:17 16.5536 
4 *689:17 *1988:A 16.3536 
5 *689:17 *1989:A 16.3536 
6 *2162:X *689:44 17.2107 
7 *689:44 *1937:A 14.5321 
8 *689:44 *2258:A 16.05 
*END

*D_NET *690 0.0104835
*CONN
*I *1938:A I *D sky130_fd_sc_hd__inv_2
*I *1948:A I *D sky130_fd_sc_hd__inv_2
*I *1941:A I *D sky130_fd_sc_hd__inv_2
*I *1939:A I *D sky130_fd_sc_hd__inv_2
*I *1940:A I *D sky130_fd_sc_hd__inv_2
*I *1942:A I *D sky130_fd_sc_hd__inv_2
*I *2258:X O *D sky130_fd_sc_hd__buf_4
*CAP
1 *1938:A 0.000346037
2 *1948:A 0
3 *1941:A 0.000209611
4 *1939:A 0.000137083
5 *1940:A 3.80696e-05
6 *1942:A 0.000406575
7 *2258:X 7.13775e-05
8 *690:75 0.000614601
9 *690:54 0.0012214
10 *690:20 0.000666422
11 *690:18 0.00140252
12 *690:8 0.000918834
13 *1942:A *1750:A 0.000481575
14 *1942:A *714:12 9.97164e-05
15 *1942:A *714:36 9.11048e-06
16 *690:75 *1979:A 5.49489e-05
17 *690:75 *694:77 5.33005e-05
18 *690:75 *694:118 0.00012529
19 *1739:B *1938:A 2.38501e-05
20 *1740:B1 *1938:A 6.48098e-05
21 *1756:A *690:54 0.0004445
22 *1756:B *690:18 0.000268512
23 *1756:B *690:20 0.000142575
24 *1757:A0 *690:20 3.56005e-05
25 *1766:A1 *690:54 0.000190322
26 *1767:A2 *690:18 0.000339864
27 *1797:C1 *1938:A 0.000180207
28 *1797:C1 *690:8 7.25873e-06
29 *1797:C1 *690:18 0.000158185
30 *2050:D *690:54 0.000183157
31 *2050:D *690:75 0.000187046
32 *2050:RESET_B *690:75 0
33 *2053:RESET_B *1942:A 1.33343e-05
34 *2090:RESET_B *690:75 0.000101859
35 *426:67 *690:54 0.000356728
36 *427:32 *690:54 5.09844e-05
37 *433:12 *1942:A 9.60875e-05
38 *535:154 *690:75 0
39 *551:12 *1941:A 5.33005e-05
40 *551:18 *1941:A 0.000181107
41 *551:69 *1941:A 0.000359279
42 *551:69 *690:75 0.000188492
*RES
1 *2258:X *690:8 10.8714 
2 *690:8 *690:18 18.8393 
3 *690:18 *690:20 3 
4 *690:20 *1942:A 26.3536 
5 *690:20 *1940:A 10.0321 
6 *690:18 *690:54 21.125 
7 *690:54 *1939:A 15.9786 
8 *690:54 *690:75 14.2857 
9 *690:75 *1941:A 14.7643 
10 *690:75 *1948:A 9.3 
11 *690:8 *1938:A 14.2643 
*END

*D_NET *691 0.00569688
*CONN
*I *1935:A I *D sky130_fd_sc_hd__inv_2
*I *1972:A I *D sky130_fd_sc_hd__inv_2
*I *1981:A I *D sky130_fd_sc_hd__inv_2
*I *2259:A I *D sky130_fd_sc_hd__clkbuf_4
*I *2163:X O *D sky130_fd_sc_hd__clkdlybuf4s25_1
*CAP
1 *1935:A 0.000614895
2 *1972:A 3.50406e-05
3 *1981:A 5.88067e-05
4 *2259:A 0.000218473
5 *2163:X 0
6 *691:36 0.00133876
7 *691:21 0.000863938
8 *691:6 0.000334776
9 *1935:A *2178:A 0
10 *1981:A *701:16 1.2104e-05
11 *2259:A *692:14 2.84026e-05
12 *691:36 *1636:A 0
13 *691:36 *2163:A 0
14 *691:36 *701:16 5.74499e-06
15 *691:36 *701:57 0.000511193
16 *691:36 *701:74 0.000559266
17 *691:36 *720:12 0.000150625
18 mem_addr[10] *691:36 0
19 mem_addr[11] *691:36 0
20 mem_addr[12] *691:36 5.97671e-05
21 mem_addr[14] *691:36 0
22 mem_addr[17] *691:36 0
23 mem_addr[18] *691:36 9.15186e-06
24 mem_addr[1] *2259:A 2.42516e-05
25 mem_addr[20] *1935:A 8.13261e-06
26 mem_addr[25] *1935:A 4.53834e-05
27 mem_addr[27] *1935:A 0
28 mem_addr[28] *1935:A 9.15186e-06
29 mem_addr[29] *1935:A 0
30 mem_addr[30] *1935:A 4.1331e-06
31 mem_addr[3] *2259:A 4.16413e-05
32 mem_addr[4] *2259:A 2.11419e-05
33 mem_addr[8] *691:36 1.50563e-05
34 *1641:B1 *1935:A 0.000125316
35 *1643:A1 *1935:A 0
36 *2083:RESET_B *1935:A 0.000175418
37 *2083:RESET_B *1972:A 4.93118e-06
38 *2168:A *2259:A 0.000217599
39 *2168:A *691:21 0.000148542
40 *2168:A *691:36 5.52302e-05
*RES
1 *2163:X *691:6 13.8 
2 *691:6 *2259:A 18.425 
3 *691:6 *691:21 6.75 
4 *691:21 *1981:A 10.2643 
5 *691:21 *691:36 21.9643 
6 *691:36 *1972:A 14.3357 
7 *691:36 *1935:A 26.3714 
*END

*D_NET *692 0.0147783
*CONN
*I *1951:A I *D sky130_fd_sc_hd__inv_2
*I *1945:A I *D sky130_fd_sc_hd__inv_2
*I *1944:A I *D sky130_fd_sc_hd__inv_2
*I *1983:A I *D sky130_fd_sc_hd__inv_2
*I *1982:A I *D sky130_fd_sc_hd__inv_2
*I *1943:A I *D sky130_fd_sc_hd__inv_2
*I *1985:A I *D sky130_fd_sc_hd__inv_2
*I *2259:X O *D sky130_fd_sc_hd__clkbuf_4
*CAP
1 *1951:A 0.000736535
2 *1945:A 0.000142993
3 *1944:A 0.000760647
4 *1983:A 0
5 *1982:A 0
6 *1943:A 0
7 *1985:A 0.000267236
8 *2259:X 0.000794944
9 *692:78 0.00153824
10 *692:59 0.000984216
11 *692:46 0.000434684
12 *692:42 0.00117006
13 *692:31 0.000782609
14 *692:14 0.00149634
15 *1944:A *1633:A 0.000122934
16 *1944:A *1633:B 1.24548e-05
17 *1944:A *1965:A 5.71472e-05
18 *1944:A *1986:A 0.000202247
19 *1944:A *694:67 0.000101388
20 *1944:A *698:27 4.98938e-05
21 *1944:A *718:10 0.000331205
22 *1945:A *2174:A 9.67754e-05
23 *1985:A *1714:A_N 0
24 *692:14 *2216:A 0.000182811
25 *692:31 *2162:A 9.08968e-05
26 *692:78 *1734:B 0.000385406
27 display_enable *1985:A 0
28 mem_addr[1] *692:14 9.83388e-05
29 mem_addr[3] *692:14 5.65955e-05
30 *1718:B1 *1951:A 2.89016e-05
31 *1735:B1 *692:78 1.98839e-05
32 *1736:A2 *1944:A 0.000145467
33 *1737:B *692:59 9.90367e-05
34 *1740:A1 *692:14 0.000139344
35 *1740:A2 *692:14 2.19818e-05
36 *1791:B1 *692:59 0
37 *1793:B *692:59 4.79842e-05
38 *1793:B *692:78 2.19684e-05
39 *1795:A2 *1985:A 0.000189644
40 *1795:B1_N *692:31 5.10675e-05
41 *1842:B1 *1944:A 0.000202019
42 *1843:A1 *692:78 5.46383e-06
43 *2049:RESET_B *692:42 0
44 *2050:CLK *1945:A 0.000356677
45 *2050:CLK *692:78 1.12713e-05
46 *2054:D *692:42 0.000103437
47 *2054:RESET_B *692:14 2.50593e-05
48 *2055:RESET_B *1944:A 0
49 *2056:D *692:78 7.74135e-05
50 *2056:RESET_B *1945:A 0.000178552
51 *2056:RESET_B *692:78 5.50052e-05
52 *2062:D *1951:A 5.33005e-05
53 *2062:RESET_B *1951:A 6.05161e-06
54 *2083:CLK *1945:A 0.000300778
55 *2092:CLK *1951:A 0.000200231
56 *2093:RESET_B *1951:A 9.33978e-07
57 *2093:RESET_B *692:46 3.80953e-06
58 *2093:RESET_B *692:59 7.43578e-06
59 *2094:D *692:78 0.000128146
60 *2096:CLK *692:31 7.70015e-05
61 *2096:CLK *692:42 8.80814e-05
62 *2096:D *1985:A 0
63 *2259:A *692:14 2.84026e-05
64 *13:12 *1944:A 0
65 *13:12 *692:59 5.51018e-05
66 *13:12 *692:78 0.000306133
67 *328:8 *1944:A 0.00010326
68 *421:10 *692:42 0
69 *426:22 *692:78 5.88692e-05
70 *537:28 *692:42 0.000104986
71 *552:29 *692:59 0.000225307
72 *552:62 *692:59 0
73 *553:34 *692:42 0
74 *553:34 *692:59 6.35892e-05
75 *556:12 *692:78 9.41642e-05
76 *556:20 *692:78 6.07232e-05
77 *571:6 *692:78 0.00013527
*RES
1 *2259:X *692:14 28.3357 
2 *692:14 *1985:A 19.6929 
3 *692:14 *692:31 15.5893 
4 *692:31 *1943:A 13.8 
5 *692:31 *692:42 11 
6 *692:42 *692:46 1.26786 
7 *692:46 *1982:A 9.3 
8 *692:46 *692:59 12.6071 
9 *692:59 *1983:A 13.8 
10 *692:59 *692:78 20.8571 
11 *692:78 *1944:A 36.9071 
12 *692:78 *1945:A 15.5857 
13 *692:42 *1951:A 19.3179 
*END

*D_NET *693 0.00231588
*CONN
*I *2163:A I *D sky130_fd_sc_hd__clkdlybuf4s25_1
*I *2260:A I *D sky130_fd_sc_hd__clkbuf_4
*I *2164:X O *D sky130_fd_sc_hd__clkdlybuf4s25_1
*CAP
1 *2163:A 0.000438299
2 *2260:A 0.000324334
3 *2164:X 0
4 *693:4 0.000762633
5 mem_addr[10] *2163:A 0.000113546
6 mem_addr[10] *2260:A 0.000133
7 mem_addr[5] *2163:A 0
8 mem_addr[8] *2163:A 3.82047e-05
9 mem_addr[9] *2163:A 0.000505868
10 *2168:A *2163:A 0
11 *691:36 *2163:A 0
*RES
1 *2164:X *693:4 9.3 
2 *693:4 *2260:A 13.55 
3 *693:4 *2163:A 28.0679 
*END

*D_NET *694 0.0184261
*CONN
*I *1986:A I *D sky130_fd_sc_hd__inv_2
*I *1971:A I *D sky130_fd_sc_hd__inv_2
*I *1949:A I *D sky130_fd_sc_hd__inv_2
*I *1979:A I *D sky130_fd_sc_hd__inv_2
*I *1984:A I *D sky130_fd_sc_hd__inv_2
*I *1987:A I *D sky130_fd_sc_hd__inv_2
*I *2162:A I *D sky130_fd_sc_hd__clkdlybuf4s25_1
*I *2260:X O *D sky130_fd_sc_hd__clkbuf_4
*CAP
1 *1986:A 0.000566918
2 *1971:A 0
3 *1949:A 3.68446e-05
4 *1979:A 1.21804e-05
5 *1984:A 6.17285e-05
6 *1987:A 2.12584e-05
7 *2162:A 0.00169797
8 *2260:X 0.000208883
9 *694:118 0.00103029
10 *694:77 0.0013957
11 *694:67 0.000948665
12 *694:53 0.00197481
13 *694:38 0.00107757
14 *694:27 0.000469247
15 *694:8 0.00218829
16 *1986:A *1633:B 0.000431497
17 *1986:A *698:27 9.90431e-05
18 *1987:A *719:66 0.000142856
19 *2162:A *1714:A_N 1.06172e-05
20 *2162:A *1715:C 0.000146187
21 *2162:A *1738:A 0.000386479
22 *2162:A *1742:A_N 5.85228e-05
23 *2162:A *2213:A 2.12647e-05
24 *2162:A *706:12 5.11663e-05
25 *2162:A *706:34 0.000160396
26 *2162:A *717:21 6.62144e-05
27 *694:8 *1742:A_N 0.000140933
28 *694:27 *1742:A_N 9.69119e-06
29 *694:38 *701:74 3.17067e-05
30 *694:53 *1639:A 5.74242e-05
31 *694:53 *701:74 0.000319323
32 *694:67 *1612:A 7.4854e-05
33 *694:118 *1783:B2 9.15842e-06
34 *694:118 *731:124 0
35 mem_addr[10] *694:8 4.91303e-05
36 *1718:A1 *2162:A 0
37 *1718:A2 *2162:A 0
38 *1736:A1 *694:67 8.46003e-05
39 *1736:A2 *694:67 0.000102977
40 *1736:A3 *694:67 0.000136951
41 *1736:B1 *1986:A 5.81511e-05
42 *1792:A *694:8 9.58181e-05
43 *1792:B *2162:A 0
44 *1792:B *694:8 9.90431e-05
45 *1794:B1 *2162:A 0
46 *1795:A1 *2162:A 0.000104399
47 *1795:B1_N *2162:A 0.000144105
48 *1944:A *1986:A 0.000202247
49 *1944:A *694:67 0.000101388
50 *1974:A *694:118 0
51 *2048:RESET_B *2162:A 1.16543e-05
52 *2050:D *694:118 0.00014852
53 *2062:RESET_B *2162:A 5.33786e-05
54 *2092:D *694:8 9.71197e-05
55 *2096:D *2162:A 0.000141941
56 *2097:RESET_B *1986:A 0.000177948
57 *2098:D *694:27 3.79467e-05
58 *2098:RESET_B *694:27 0
59 *2126:A *694:53 2.0591e-05
60 *2150:A *694:118 0.000264748
61 *328:8 *1986:A 3.57844e-05
62 *348:20 *1987:A 0.000142856
63 *348:20 *694:27 0
64 *350:10 *694:53 5.8996e-05
65 *351:10 *694:53 6.02223e-05
66 *407:12 *2162:A 0
67 *407:25 *2162:A 0
68 *427:32 *694:118 0.000506898
69 *446:12 *694:118 6.08909e-05
70 *538:8 *694:53 0.000182811
71 *538:65 *1986:A 0
72 *538:76 *1986:A 0
73 *550:10 *694:118 0.000571205
74 *551:69 *1979:A 5.49489e-05
75 *551:69 *694:77 0.000304792
76 *551:78 *694:77 1.00332e-05
77 *556:88 *2162:A 0
78 *556:88 *694:27 0
79 *556:88 *694:38 0
80 *556:106 *694:38 0
81 *556:106 *694:53 0
82 *565:10 *1986:A 5.07201e-05
83 *689:44 *2162:A 2.11336e-05
84 *690:75 *1979:A 5.49489e-05
85 *690:75 *694:77 5.33005e-05
86 *690:75 *694:118 0.00012529
87 *692:31 *2162:A 9.08968e-05
*RES
1 *2260:X *694:8 18.0321 
2 *694:8 *2162:A 46.7464 
3 *694:8 *694:27 5.28571 
4 *694:27 *1987:A 15.1571 
5 *694:27 *694:38 2.85714 
6 *694:38 *1984:A 14.7464 
7 *694:38 *694:53 21.375 
8 *694:53 *694:67 18.7321 
9 *694:67 *694:77 16.625 
10 *694:77 *1979:A 9.83571 
11 *694:77 *694:118 46.6116 
12 *694:118 *1949:A 14.3357 
13 *694:67 *1971:A 9.3 
14 *694:53 *1986:A 32.6929 
*END

*D_NET *695 0.00526239
*CONN
*I *2261:A I *D sky130_fd_sc_hd__buf_4
*I *1966:A I *D sky130_fd_sc_hd__inv_2
*I *1991:A I *D sky130_fd_sc_hd__inv_2
*I *1990:A I *D sky130_fd_sc_hd__inv_2
*I *1993:A I *D sky130_fd_sc_hd__inv_2
*I *2165:X O *D sky130_fd_sc_hd__clkdlybuf4s25_1
*CAP
1 *2261:A 0.000262018
2 *1966:A 0
3 *1991:A 0
4 *1990:A 0
5 *1993:A 0.000250469
6 *2165:X 0.000760318
7 *695:30 0.000602255
8 *695:20 0.000431467
9 *695:18 0.00057798
10 *1993:A *2161:A 0.000579959
11 *1993:A *701:92 5.02242e-05
12 *2261:A *2165:A 2.27416e-05
13 *2261:A *696:20 0.000299233
14 *695:18 *696:20 2.89114e-05
15 *695:30 *701:92 0.00034563
16 *1671:B *695:18 0
17 *2076:RESET_B *2261:A 1.58559e-05
18 *2077:D *695:18 0
19 *2078:CLK *695:18 9.83388e-05
20 *2078:CLK *695:20 0.000231002
21 *2078:CLK *695:30 0.000228514
22 *2078:D *695:18 0.00017989
23 *374:6 *695:18 5.52302e-05
24 *374:19 *2261:A 9.22103e-06
25 *539:10 *695:30 0.000222878
26 *539:18 *695:30 1.02504e-05
*RES
1 *2165:X *695:18 28.2643 
2 *695:18 *695:20 2.17857 
3 *695:20 *695:30 17.4464 
4 *695:30 *1993:A 15.5857 
5 *695:30 *1990:A 9.3 
6 *695:20 *1991:A 9.3 
7 *695:18 *1966:A 9.3 
8 *2165:X *2261:A 31.7429 
*END

*D_NET *696 0.0119532
*CONN
*I *2005:A I *D sky130_fd_sc_hd__inv_2
*I *1964:A I *D sky130_fd_sc_hd__inv_2
*I *1956:A I *D sky130_fd_sc_hd__inv_2
*I *1955:A I *D sky130_fd_sc_hd__inv_2
*I *1963:A I *D sky130_fd_sc_hd__inv_2
*I *2004:A I *D sky130_fd_sc_hd__inv_2
*I *2261:X O *D sky130_fd_sc_hd__buf_4
*CAP
1 *2005:A 0
2 *1964:A 0.000481309
3 *1956:A 0.000225711
4 *1955:A 0
5 *1963:A 0
6 *2004:A 4.35214e-05
7 *2261:X 0.000684967
8 *696:80 0.000784352
9 *696:61 0.000955931
10 *696:53 0.00123985
11 *696:38 0.00102393
12 *696:20 0.00130412
13 *1956:A *2241:A 0.000141941
14 *1964:A *1673:A_N 9.22015e-05
15 *1964:A *771:20 0.000226264
16 *696:20 *1663:A 1.98839e-05
17 *696:20 *2165:A 9.71197e-05
18 *696:20 *2201:A 9.94037e-05
19 *696:38 *2189:A 0.000161126
20 *696:53 *1654:A 0
21 *696:53 *1654:B 0
22 *696:61 *1661:A 0
23 *696:61 *1673:A_N 3.17163e-05
24 *696:61 *773:20 7.9529e-05
25 *696:80 *1661:A 3.10885e-05
26 *1661:B *696:80 3.18676e-05
27 *1663:B *696:20 0.000185197
28 *1674:B *1964:A 6.16651e-06
29 *1680:A *1964:A 0.000623689
30 *1680:A *696:61 0
31 *1683:B *696:61 0.000349061
32 *1684:C *696:80 2.14658e-05
33 *1702:B1 *696:80 0
34 *1703:A *1956:A 0.000215381
35 *1703:A *696:80 9.83442e-05
36 *1703:B *696:80 0.000190891
37 *1705:C *696:80 0
38 *1822:B1 *696:38 3.91192e-05
39 *2066:RESET_B *696:80 9.96487e-05
40 *2067:RESET_B *1956:A 7.6941e-05
41 *2074:D *696:61 0.000129868
42 *2074:RESET_B *696:61 7.85165e-05
43 *2074:RESET_B *696:80 1.38796e-05
44 *2075:D *1964:A 1.68516e-05
45 *2075:RESET_B *1964:A 2.02073e-05
46 *2076:RESET_B *696:20 2.04109e-05
47 *2115:D *696:38 0.000173015
48 *2115:RESET_B *696:38 0.000193447
49 *2116:RESET_B *696:38 5.50052e-05
50 *2142:A *696:53 0.000126639
51 *2143:A *696:53 5.52238e-05
52 *2261:A *696:20 0.000299233
53 *2265:A *696:61 0
54 *371:6 *696:61 9.87672e-05
55 *371:6 *696:80 0.000273822
56 *372:12 *696:80 1.93007e-05
57 *372:14 *696:61 0
58 *373:12 *1964:A 1.92656e-05
59 *374:6 *696:20 0.00014129
60 *374:19 *696:20 1.92905e-05
61 *385:10 *1964:A 6.05161e-06
62 *387:10 *696:80 0
63 *535:233 *696:38 0.000107875
64 *535:285 *2004:A 4.69698e-05
65 *540:21 *696:53 0
66 *540:21 *696:61 3.17148e-05
67 *540:40 *696:61 0.000315894
68 *540:44 *696:61 0
69 *540:79 *696:61 0
70 *695:18 *696:20 2.89114e-05
*RES
1 *2261:X *696:20 32.0679 
2 *696:20 *696:38 25.3393 
3 *696:38 *2004:A 14.6393 
4 *696:38 *696:53 11.2857 
5 *696:53 *696:61 20.0893 
6 *696:61 *1963:A 9.3 
7 *696:61 *696:80 20.7143 
8 *696:80 *1955:A 9.3 
9 *696:80 *1956:A 14.7643 
10 *696:53 *1964:A 29.9429 
11 *696:20 *2005:A 9.3 
*END

*D_NET *697 0.00844462
*CONN
*I *2210:A I *D sky130_fd_sc_hd__dlygate4sd3_1
*I *1873:B I *D sky130_fd_sc_hd__and3_2
*I *1871:A I *D sky130_fd_sc_hd__and3_2
*I *2296:A I *D sky130_fd_sc_hd__clkdlybuf4s25_1
*I *2026:Q O *D sky130_fd_sc_hd__dfxtp_2
*CAP
1 *2210:A 0.000134162
2 *1873:B 0.000194606
3 *1871:A 4.38827e-05
4 *2296:A 0.000601928
5 *2026:Q 5.21272e-05
6 *697:39 0.00141562
7 *697:14 0.00207884
8 *697:6 0.000486067
9 *2210:A *1873:A 2.38501e-05
10 *1609:A *1871:A 3.69047e-06
11 *1861:A *2296:A 2.62951e-05
12 *1864:B *2296:A 0
13 *1865:D *2296:A 0.000150625
14 *1869:A1 *2210:A 0.000100165
15 *1880:A *697:14 1.42353e-05
16 *1880:B *697:39 0
17 *1881:A *1873:B 0.000596133
18 *1881:A *697:39 1.94879e-05
19 *1885:A2 *1873:B 0.000452544
20 *2022:CLK *2296:A 0.000150625
21 *2024:D *2296:A 4.96583e-06
22 *2292:A *2296:A 6.80581e-05
23 *2292:A *697:14 2.39656e-05
24 *488:10 *2296:A 0
25 *492:43 *1873:B 6.87834e-06
26 *492:43 *697:39 6.27272e-06
27 *492:60 *1873:B 3.65766e-05
28 *543:66 *2296:A 0.000404008
29 *543:66 *697:14 3.5626e-05
30 *668:12 *2296:A 0.000108638
31 *668:31 *2296:A 0.000226834
32 *668:44 *2296:A 0.000283099
33 *679:89 *2296:A 0.000237404
34 *679:89 *697:14 0.000111218
35 *679:112 *697:14 0.000222177
36 *686:27 *697:14 0.000124012
*RES
1 *2026:Q *697:6 9.83571 
2 *697:6 *697:14 11.5089 
3 *697:14 *2296:A 36.2554 
4 *697:14 *697:39 9.30579 
5 *697:39 *1871:A 14.3357 
6 *697:39 *1873:B 21.5143 
7 *697:6 *2210:A 12.2107 
*END

*D_NET *698 0.00317727
*CONN
*I *2262:A I *D sky130_fd_sc_hd__buf_4
*I *1934:A I *D sky130_fd_sc_hd__inv_2
*I *1967:A I *D sky130_fd_sc_hd__inv_2
*I *1965:A I *D sky130_fd_sc_hd__inv_2
*I *1968:A I *D sky130_fd_sc_hd__inv_2
*I *2166:X O *D sky130_fd_sc_hd__clkdlybuf4s25_1
*CAP
1 *2262:A 8.18109e-05
2 *1934:A 0
3 *1967:A 0
4 *1965:A 0.000306002
5 *1968:A 0
6 *2166:X 7.56652e-05
7 *698:27 0.000720709
8 *698:16 0.000559479
9 *698:14 0.000298327
10 *698:10 0.000311031
11 *1965:A *701:92 5.52302e-05
12 *2262:A *701:92 1.39726e-05
13 *698:10 *1667:A 4.46186e-06
14 *698:10 *699:10 0
15 *698:10 *700:10 2.05938e-05
16 *698:10 *701:92 0
17 *698:14 *700:10 0.000144773
18 *698:14 *701:92 0.000156917
19 *698:16 *701:92 2.89114e-05
20 *1664:C *1965:A 0
21 *1944:A *1965:A 5.71472e-05
22 *1944:A *698:27 4.98938e-05
23 *1986:A *698:27 9.90431e-05
24 *2077:CLK *1965:A 5.52302e-05
25 *2078:D *1965:A 0
26 *2078:RESET_B *1965:A 0.000124735
27 *2078:RESET_B *698:27 1.33343e-05
*RES
1 *2166:X *698:10 19.6393 
2 *698:10 *698:14 4.25 
3 *698:14 *698:16 2.58929 
4 *698:16 *1968:A 9.3 
5 *698:16 *698:27 7.14286 
6 *698:27 *1965:A 24.3536 
7 *698:27 *1967:A 9.3 
8 *698:14 *1934:A 9.3 
9 *698:10 *2262:A 10.675 
*END

*D_NET *699 0.00815476
*CONN
*I *1958:A I *D sky130_fd_sc_hd__inv_2
*I *1957:A I *D sky130_fd_sc_hd__inv_2
*I *1962:A I *D sky130_fd_sc_hd__inv_2
*I *1961:A I *D sky130_fd_sc_hd__inv_2
*I *1969:A I *D sky130_fd_sc_hd__inv_2
*I *1970:A I *D sky130_fd_sc_hd__inv_2
*I *2262:X O *D sky130_fd_sc_hd__buf_4
*CAP
1 *1958:A 0
2 *1957:A 0.00046243
3 *1962:A 0.000272616
4 *1961:A 0.000211798
5 *1969:A 0
6 *1970:A 0.000249575
7 *2262:X 0.000312623
8 *699:58 0.00161032
9 *699:34 0.000484414
10 *699:32 0.00141646
11 *699:23 0.000563324
12 *699:10 0.000856947
13 *1957:A *765:60 9.84673e-05
14 *1970:A *2181:A 0.000228514
15 *699:10 *1667:A 0
16 *699:10 *2181:A 0
17 *699:10 *761:14 1.76135e-05
18 *699:23 *1678:A 0
19 *699:23 *1678:B 2.2927e-05
20 *699:23 *2181:A 0
21 *699:23 *761:14 0.000182721
22 *699:32 *1678:B 3.8206e-05
23 *699:32 *700:46 0
24 *699:32 *768:38 4.91567e-05
25 *699:58 *1688:B 0.000113887
26 *699:58 *1959:A 0
27 *699:58 *2227:A 0
28 *699:58 *700:46 0
29 *699:58 *700:59 0
30 *699:58 *768:38 8.17708e-05
31 *1666:A *1970:A 0.000142856
32 *1692:B *699:58 0.000154762
33 *2069:RESET_B *699:58 6.05161e-06
34 *2070:RESET_B *699:58 0
35 *2071:CLK *699:58 6.42145e-05
36 *2072:RESET_B *699:32 0
37 *2073:D *699:58 0.000387425
38 *2080:RESET_B *699:23 0.000125679
39 *698:10 *699:10 0
*RES
1 *2262:X *699:10 19.3179 
2 *699:10 *1970:A 18.8714 
3 *699:10 *699:23 6.80357 
4 *699:23 *1969:A 13.8 
5 *699:23 *699:32 5.28571 
6 *699:32 *699:34 4.5 
7 *699:34 *1961:A 12.7286 
8 *699:34 *1962:A 13.9607 
9 *699:32 *699:58 27.9821 
10 *699:58 *1957:A 26.6214 
11 *699:58 *1958:A 9.3 
*END

*D_NET *700 0.0152249
*CONN
*I *1959:A I *D sky130_fd_sc_hd__inv_2
*I *2000:A I *D sky130_fd_sc_hd__inv_2
*I *2001:A I *D sky130_fd_sc_hd__inv_2
*I *2002:A I *D sky130_fd_sc_hd__inv_2
*I *1960:A I *D sky130_fd_sc_hd__inv_2
*I *2165:A I *D sky130_fd_sc_hd__clkdlybuf4s25_1
*I *2166:A I *D sky130_fd_sc_hd__clkdlybuf4s25_1
*I *2167:X O *D sky130_fd_sc_hd__clkdlybuf4s25_1
*CAP
1 *1959:A 0.000108492
2 *2000:A 0
3 *2001:A 0.000278695
4 *2002:A 7.95802e-06
5 *1960:A 0.000248278
6 *2165:A 0.000643287
7 *2166:A 7.56577e-05
8 *2167:X 0.000169838
9 *700:84 0.000577438
10 *700:65 0.00274298
11 *700:59 0.00296595
12 *700:46 0.00133897
13 *700:21 0.00158356
14 *700:10 0.000516259
15 *1959:A *766:14 0
16 *1960:A *1688:B 2.89114e-05
17 *1960:A *2205:A 0.000403837
18 *2001:A *753:56 0.00010096
19 *2165:A *758:22 2.6269e-05
20 *2166:A *1667:A 4.58976e-05
21 *700:10 *1667:A 5.66157e-05
22 *700:10 *701:92 0
23 *700:21 *1667:A 0.000227736
24 *700:21 *761:14 0
25 *700:46 *761:14 0
26 *700:59 *766:14 0
27 *700:84 *1689:A 3.49456e-06
28 *700:84 *753:56 0.000129515
29 *1665:B *2166:A 9.90367e-05
30 *1665:B *700:10 1.52978e-05
31 *1665:B *700:21 0.00011945
32 *1666:A *700:21 0
33 *1668:A *700:21 7.04538e-05
34 *1668:A *700:46 0.000184335
35 *1668:B *700:21 0
36 *1670:B *2165:A 2.89114e-05
37 *1692:B *700:59 0
38 *1694:A *700:59 0
39 *1695:A *1959:A 6.17796e-06
40 *1695:B *1959:A 0
41 *2070:RESET_B *1959:A 0.000101346
42 *2071:CLK *700:59 0
43 *2071:D *700:59 4.57445e-05
44 *2072:RESET_B *700:46 0.000101758
45 *2080:D *2165:A 5.62995e-05
46 *2111:RESET_B *2001:A 8.4316e-05
47 *2111:RESET_B *700:84 7.25873e-06
48 *2112:RESET_B *2001:A 0.000103737
49 *2261:A *2165:A 2.27416e-05
50 *374:19 *2165:A 0.000443654
51 *376:12 *700:21 7.8327e-05
52 *540:79 *2002:A 9.59532e-06
53 *540:79 *700:84 0.000185408
54 *541:40 *2165:A 0.000472524
55 *541:44 *2165:A 6.87574e-05
56 *542:10 *700:46 0
57 *542:43 *700:46 0
58 *542:43 *700:59 0
59 *673:10 *2002:A 2.21972e-05
60 *673:10 *700:84 0.000178216
61 *673:21 *700:84 0.000176234
62 *696:20 *2165:A 9.71197e-05
63 *698:10 *700:10 2.05938e-05
64 *698:14 *700:10 0.000144773
65 *699:32 *700:46 0
66 *699:58 *1959:A 0
67 *699:58 *700:46 0
68 *699:58 *700:59 0
*RES
1 *2167:X *700:10 16.8 
2 *700:10 *2166:A 15.5679 
3 *700:10 *700:21 7.41071 
4 *700:21 *2165:A 28.6036 
5 *700:21 *700:46 13.2321 
6 *700:46 *1960:A 19.2821 
7 *700:46 *700:59 7.5625 
8 *700:59 *700:65 11.4072 
9 *700:65 *2002:A 14.0768 
10 *700:65 *700:84 12.5804 
11 *700:84 *2001:A 24.7643 
12 *700:84 *2000:A 9.3 
13 *700:59 *1959:A 16.0321 
*END

*D_NET *701 0.0246497
*CONN
*I *2167:A I *D sky130_fd_sc_hd__clkdlybuf4s25_1
*I *2161:A I *D sky130_fd_sc_hd__clkdlybuf4s25_1
*I *2164:A I *D sky130_fd_sc_hd__clkdlybuf4s25_1
*I *1980:A I *D sky130_fd_sc_hd__inv_2
*I *2157:A I *D sky130_fd_sc_hd__clkdlybuf4s25_1
*I *2168:X O *D sky130_fd_sc_hd__clkdlybuf4s25_1
*CAP
1 *2167:A 4.47669e-05
2 *2161:A 0.000340627
3 *2164:A 0
4 *1980:A 0.000601011
5 *2157:A 0.000303573
6 *2168:X 0.00168395
7 *701:92 0.00219611
8 *701:74 0.00341853
9 *701:57 0.00174471
10 *701:24 0.00276596
11 *701:16 0.00331889
12 *701:24 *2237:A 0.000325206
13 *701:57 *1636:C 0
14 *701:74 *1636:C 0
15 *701:74 *1639:A 6.27933e-05
16 *701:74 *719:60 6.03809e-05
17 *701:74 *776:21 0.000114833
18 *701:74 *776:23 4.35048e-05
19 *701:74 *776:25 1.87955e-05
20 *701:92 *758:14 3.92032e-05
21 *701:92 *760:6 3.32631e-05
22 *701:92 *760:27 9.74668e-05
23 *1641:A2 *701:74 0
24 *1642:B1 *701:74 8.34581e-05
25 *1644:B1 *701:74 5.33978e-05
26 *1665:B *701:92 0
27 *1670:B *701:92 0
28 *1720:B1_N *1980:A 0.000519249
29 *1720:B1_N *2157:A 5.70447e-05
30 *1725:B *2157:A 0.00010919
31 *1725:C *2157:A 0.000137832
32 *1752:B1 *701:24 0.000220861
33 *1760:B1 *1980:A 0.000144773
34 *1767:A2 *701:24 4.11572e-05
35 *1767:B1 *701:24 0.000266238
36 *1779:A2 *701:74 0
37 *1782:B *1980:A 0.000140933
38 *1792:A *701:57 3.85148e-05
39 *1792:B *701:16 0.000165092
40 *1965:A *701:92 5.52302e-05
41 *1981:A *701:16 1.2104e-05
42 *1993:A *2161:A 0.000579959
43 *1993:A *701:92 5.02242e-05
44 *2015:SET_B *701:74 0
45 *2016:D *701:74 0
46 *2049:D *701:24 0.000141729
47 *2077:CLK *701:92 9.61455e-05
48 *2077:D *701:92 8.07313e-05
49 *2079:CLK *701:92 5.33334e-05
50 *2079:D *701:92 0.000148903
51 *2079:RESET_B *701:92 0
52 *2083:D *701:74 6.09754e-05
53 *2092:D *701:57 0
54 *2092:RESET_B *701:57 3.19595e-05
55 *2099:CLK *2157:A 9.58689e-05
56 *2100:CLK *701:24 9.84729e-05
57 *2100:D *701:24 1.07719e-05
58 *2168:A *701:16 3.69047e-06
59 *2197:A *701:24 9.56233e-05
60 *2235:A *701:24 5.33005e-05
61 *2255:A *2157:A 8.08608e-06
62 *2262:A *701:92 1.39726e-05
63 *348:20 *701:57 0
64 *412:14 *2157:A 5.36422e-05
65 *421:25 *701:16 0.000375788
66 *433:20 *701:24 4.4545e-05
67 *441:8 *1980:A 2.14658e-05
68 *449:12 *1980:A 0.000986221
69 *471:12 *2157:A 0
70 *555:80 *1980:A 0.000140933
71 *555:84 *1980:A 0.000168184
72 *555:86 *1980:A 1.78353e-05
73 *691:36 *701:16 5.74499e-06
74 *691:36 *701:57 0.000511193
75 *691:36 *701:74 0.000559266
76 *694:38 *701:74 3.17067e-05
77 *694:53 *701:74 0.000319323
78 *695:30 *701:92 0.00034563
79 *698:10 *701:92 0
80 *698:14 *701:92 0.000156917
81 *698:16 *701:92 2.89114e-05
82 *700:10 *701:92 0
*RES
1 *2168:X *701:16 36.8536 
2 *701:16 *701:24 33.5179 
3 *701:24 *2157:A 20.6393 
4 *701:24 *1980:A 32.3536 
5 *2168:X *701:57 20.3 
6 *701:57 *2164:A 13.8 
7 *701:57 *701:74 41.5357 
8 *701:74 *701:92 47.9464 
9 *701:92 *2161:A 16.8357 
10 *701:74 *2167:A 14.5321 
*END

*D_NET *702 0.00354951
*CONN
*I *2203:A I *D sky130_fd_sc_hd__dlygate4sd3_1
*I *2297:A I *D sky130_fd_sc_hd__clkdlybuf4s25_1
*I *1873:A I *D sky130_fd_sc_hd__and3_2
*I *2027:Q O *D sky130_fd_sc_hd__dfxtp_2
*CAP
1 *2203:A 0
2 *2297:A 0
3 *1873:A 0.00069922
4 *2027:Q 0.000197537
5 *702:12 0.000755586
6 *702:10 0.000253903
7 *1869:A1 *1873:A 0.000446768
8 *1869:A1 *702:12 1.02504e-05
9 *1869:A2 *1873:A 3.5097e-05
10 *1869:B1 *1873:A 0.000226279
11 *1870:A2 *1873:A 0.000185408
12 *1870:B1 *1873:A 0.000108839
13 *1873:C *1873:A 3.16805e-05
14 *1888:A *702:10 0
15 *1888:A *702:12 0
16 *2028:CLK *702:10 4.884e-05
17 *2210:A *1873:A 2.38501e-05
18 *492:87 *1873:A 3.34366e-05
19 *492:87 *702:10 0.000137939
20 *492:87 *702:12 0.000164561
21 *496:54 *702:12 0
22 *577:10 *702:12 0.000140375
23 *686:27 *1873:A 4.99392e-05
*RES
1 *2027:Q *702:10 17.1036 
2 *702:10 *702:12 2.25 
3 *702:12 *1873:A 28.55 
4 *702:12 *2297:A 13.8 
5 *702:10 *2203:A 13.8 
*END

*D_NET *703 0.00639914
*CONN
*I *1877:A I *D sky130_fd_sc_hd__and3_2
*I *2200:A I *D sky130_fd_sc_hd__dlygate4sd3_1
*I *2298:A I *D sky130_fd_sc_hd__clkdlybuf4s25_1
*I *1879:B I *D sky130_fd_sc_hd__and2_2
*I *2028:Q O *D sky130_fd_sc_hd__dfxtp_2
*CAP
1 *1877:A 0.00012332
2 *2200:A 0.000173133
3 *2298:A 0.000926152
4 *1879:B 0.0003631
5 *2028:Q 9.64526e-05
6 *703:10 0.00145375
7 *703:8 0.000337633
8 *703:6 0.000219773
9 *1879:B *1879:A 4.45753e-05
10 *1879:B *704:12 0.00013992
11 *703:10 *704:10 6.97272e-05
12 *703:10 *704:12 1.95045e-05
13 *1609:A *1879:B 0.000142819
14 *1875:A1 *2298:A 7.70134e-06
15 *1875:B1 *2298:A 1.28239e-05
16 *1875:C1 *2298:A 0.000105972
17 *1877:B *703:10 0.000263415
18 *1883:B1 *2298:A 0.000363159
19 *1884:B *1879:B 0.000193761
20 *1889:A1 *1877:A 3.57366e-05
21 *1891:A *2200:A 0
22 *1891:C *2200:A 0
23 *2025:D *2200:A 0
24 *2025:D *703:10 0
25 *2027:D *2298:A 3.46742e-05
26 *2030:D *1879:B 7.16384e-05
27 *2267:A *703:10 0
28 *447:18 *1879:B 0.000120504
29 *492:71 *1879:B 0.000147994
30 *492:71 *703:10 0.000120975
31 *492:79 *2298:A 0.000307363
32 *492:87 *2298:A 0.000182694
33 *496:22 *1877:A 2.14658e-05
34 *496:22 *2200:A 5.43587e-05
35 *496:22 *703:10 1.17968e-05
36 *496:24 *1877:A 2.89114e-05
37 *496:24 *703:6 5.12829e-05
38 *499:12 *703:10 0.000153054
*RES
1 *2028:Q *703:6 11.0679 
2 *703:6 *703:8 4.5 
3 *703:8 *703:10 5.28571 
4 *703:10 *1879:B 22.7286 
5 *703:10 *2298:A 29.5857 
6 *703:8 *2200:A 16.6571 
7 *703:6 *1877:A 11.8179 
*END

*D_NET *704 0.00480233
*CONN
*I *2208:A I *D sky130_fd_sc_hd__dlygate4sd3_1
*I *2299:A I *D sky130_fd_sc_hd__clkdlybuf4s25_1
*I *1879:A I *D sky130_fd_sc_hd__and2_2
*I *2029:Q O *D sky130_fd_sc_hd__dfxtp_2
*CAP
1 *2208:A 0.000114321
2 *2299:A 0.00078711
3 *1879:A 0.000226171
4 *2029:Q 0.000119743
5 *704:12 0.00122098
6 *704:10 0.000441767
7 pcRegister[10] *2299:A 0.000141639
8 *1879:B *1879:A 4.45753e-05
9 *1879:B *704:12 0.00013992
10 *1880:A *2299:A 9.84729e-05
11 *1880:D *2299:A 5.50052e-05
12 *1883:B1 *2208:A 0.000223558
13 *1884:B *1879:A 0.000218408
14 *2029:D *2208:A 9.15291e-05
15 *2267:A *1879:A 2.81056e-05
16 *2267:A *704:10 4.66326e-05
17 *2267:A *704:12 9.65379e-05
18 *447:18 *1879:A 0.000122226
19 *499:12 *704:10 2.89016e-05
20 *535:106 *1879:A 8.56034e-05
21 *559:16 *1879:A 1.27905e-05
22 *686:37 *2299:A 0.000369096
23 *703:10 *704:10 6.97272e-05
24 *703:10 *704:12 1.95045e-05
*RES
1 *2029:Q *704:10 16.2821 
2 *704:10 *704:12 4.375 
3 *704:12 *1879:A 19.0857 
4 *704:12 *2299:A 28.0321 
5 *704:10 *2208:A 16.5143 
*END

*D_NET *705 0.00632916
*CONN
*I *1759:A_N I *D sky130_fd_sc_hd__nand3b_2
*I *2239:A I *D sky130_fd_sc_hd__dlygate4sd3_1
*I *1786:A2 I *D sky130_fd_sc_hd__o21a_2
*I *1606:A I *D sky130_fd_sc_hd__inv_2
*I *1785:A2 I *D sky130_fd_sc_hd__o21a_2
*I *1710:A1 I *D sky130_fd_sc_hd__o21ba_2
*I *1711:A1 I *D sky130_fd_sc_hd__o21ba_2
*I *2063:Q O *D sky130_fd_sc_hd__dfrtp_2
*CAP
1 *1759:A_N 0.000218178
2 *2239:A 0
3 *1786:A2 0
4 *1606:A 0.000327799
5 *1785:A2 9.96888e-05
6 *1710:A1 0
7 *1711:A1 0.000130151
8 *2063:Q 0
9 *705:57 0.000674855
10 *705:22 0.00040548
11 *705:16 0.000489088
12 *705:12 0.000589621
13 *705:10 0.000257629
14 *705:4 0.000347313
15 *1606:A *1786:A1 9.11048e-06
16 *1606:A *733:20 7.70035e-05
17 *1759:A_N *1613:A 8.33813e-05
18 *1759:A_N *1759:C 5.38444e-06
19 *1759:A_N *733:16 0.000315152
20 *1785:A2 *1708:A_N 5.33005e-05
21 *1785:A2 *738:29 9.05283e-05
22 *705:10 *733:16 1.5424e-05
23 *705:12 *1707:A 0
24 *705:16 *1785:B1 1.52978e-05
25 *705:16 *738:29 3.17148e-05
26 *705:22 *738:29 5.72966e-05
27 *705:57 *1707:A 7.72798e-05
28 *705:57 *1786:B1 2.89114e-05
29 *1707:B *1606:A 3.41517e-06
30 *1707:B *705:57 4.82222e-05
31 *1710:A2 *1711:A1 5.52302e-05
32 *1710:A2 *705:22 9.80173e-05
33 *1710:B1_N *1711:A1 5.02112e-05
34 *1787:A *705:22 2.87485e-05
35 *1787:B *705:12 1.7845e-05
36 *1787:B *705:16 5.33978e-05
37 *1787:B *705:22 4.59075e-05
38 *1787:B *705:57 0.000180777
39 *1952:A *705:12 1.94879e-05
40 *2063:RESET_B *705:10 0.000199053
41 *2063:RESET_B *705:12 0.000127446
42 *2065:D *1711:A1 0
43 *254:14 *705:22 0.000110107
44 *322:14 *1606:A 7.31195e-06
45 *329:10 *1759:A_N 0.00022266
46 *329:12 *705:12 0
47 *402:8 *1606:A 0.000228514
48 *402:8 *705:57 1.15172e-05
49 *404:22 *1711:A1 1.89507e-06
50 *413:41 *705:10 0.000123295
51 *454:14 *705:10 5.90443e-06
52 *454:14 *705:12 7.75022e-05
53 *454:14 *705:16 2.18103e-05
54 *666:16 *1711:A1 0.000149406
55 *666:16 *705:22 4.18895e-05
56 *677:27 *705:16 0
*RES
1 *2063:Q *705:4 9.3 
2 *705:4 *705:10 7.39286 
3 *705:10 *705:12 3.16071 
4 *705:12 *705:16 6.75 
5 *705:16 *705:22 5.60714 
6 *705:22 *1711:A1 21.3893 
7 *705:22 *1710:A1 9.3 
8 *705:16 *1785:A2 11.0679 
9 *705:12 *705:57 9.71429 
10 *705:57 *1606:A 23.3714 
11 *705:57 *1786:A2 9.3 
12 *705:10 *2239:A 13.8 
13 *705:4 *1759:A_N 14.8 
*END

*D_NET *706 0.0045205
*CONN
*I *1742:A_N I *D sky130_fd_sc_hd__nand3b_2
*I *2196:A I *D sky130_fd_sc_hd__dlygate4sd3_1
*I *1715:A_N I *D sky130_fd_sc_hd__and3b_2
*I *1714:A_N I *D sky130_fd_sc_hd__nand2b_2
*I *2062:Q O *D sky130_fd_sc_hd__dfrtp_2
*CAP
1 *1742:A_N 0.00016137
2 *2196:A 4.91913e-05
3 *1715:A_N 0
4 *1714:A_N 0.000301048
5 *2062:Q 0.000119056
6 *706:34 0.000356646
7 *706:12 0.000868615
8 *706:6 0.000832708
9 *1714:A_N *1714:B 0
10 *1714:A_N *717:10 9.96487e-05
11 *1742:A_N *1742:B 9.31893e-05
12 *2196:A *1717:B 7.02611e-05
13 *706:12 *1738:A 0.000197131
14 *706:12 *717:10 2.22419e-05
15 mem_addr[10] *1742:A_N 9.90367e-05
16 mem_addr[8] *2196:A 7.02611e-05
17 *1740:A2 *706:12 0.000112133
18 *1792:B *1742:A_N 0.000196276
19 *1792:B *706:34 0.000440363
20 *1985:A *1714:A_N 0
21 *2162:A *1714:A_N 1.06172e-05
22 *2162:A *1742:A_N 5.85228e-05
23 *2162:A *706:12 5.11663e-05
24 *2162:A *706:34 0.000160396
25 *407:12 *706:12 0
26 *694:8 *1742:A_N 0.000140933
27 *694:27 *1742:A_N 9.69119e-06
*RES
1 *2062:Q *706:6 10.6571 
2 *706:6 *706:12 14.1964 
3 *706:12 *1714:A_N 19.425 
4 *706:12 *1715:A_N 13.8 
5 *706:6 *706:34 10.0893 
6 *706:34 *2196:A 15.1571 
7 *706:34 *1742:A_N 18.9429 
*END

*D_NET *707 0.00126955
*CONN
*I *1605:A I *D sky130_fd_sc_hd__inv_2
*I *1842:A1 I *D sky130_fd_sc_hd__a21oi_2
*I *1633:A I *D sky130_fd_sc_hd__and3_2
*I *2082:Q O *D sky130_fd_sc_hd__dfstp_2
*CAP
1 *1605:A 6.76725e-05
2 *1842:A1 1.55111e-05
3 *1633:A 7.42161e-05
4 *2082:Q 7.19737e-05
5 *707:21 0.00024055
6 *707:6 0.000303556
7 *1633:A *1612:A 1.08359e-05
8 *1633:A *1633:C 5.33005e-05
9 *1633:A *718:10 4.93928e-05
10 *1736:A2 *1633:A 9.25014e-06
11 *1736:B1 *1633:A 5.52238e-05
12 *1842:B1 *707:21 5.33005e-05
13 *1944:A *1633:A 0.000122934
14 *2170:A *1605:A 0.000128496
15 *2170:A *707:21 1.33343e-05
*RES
1 *2082:Q *707:6 10.2464 
2 *707:6 *1633:A 20.4786 
3 *707:6 *707:21 2.17857 
4 *707:21 *1842:A1 9.72857 
5 *707:21 *1605:A 11.0857 
*END

*D_NET *708 0.00309989
*CONN
*I *1798:A1 I *D sky130_fd_sc_hd__a21o_2
*I *1621:A2 I *D sky130_fd_sc_hd__a31o_2
*I *1614:A I *D sky130_fd_sc_hd__inv_2
*I *2102:Q O *D sky130_fd_sc_hd__dfstp_2
*CAP
1 *1798:A1 0
2 *1621:A2 0.000287759
3 *1614:A 0
4 *2102:Q 0.000590021
5 *708:16 0.000435629
6 *708:10 0.00073789
7 *1621:A2 *1621:A1 9.60875e-05
8 *1621:A2 *1621:B1 7.32173e-05
9 *1621:A2 *1722:A1 7.48091e-05
10 *1621:A2 *1841:A 0
11 *1621:A2 *734:12 0.000230482
12 *708:10 *1620:B 5.80706e-06
13 *708:16 *1620:A 2.49484e-05
14 *708:16 *1620:B 0.000122758
15 *708:16 *734:12 9.47613e-05
16 *1722:A2 *1621:A2 2.77143e-05
17 *1722:A3 *1621:A2 1.66438e-05
18 *1722:B1 *1621:A2 0.000145522
19 *1722:B1 *708:16 5.71472e-05
20 *1841:B *708:16 7.32955e-05
21 *2102:D *708:10 0
22 *539:18 *708:10 5.39629e-06
*RES
1 *2102:Q *708:10 21.2107 
2 *708:10 *708:16 8.51786 
3 *708:16 *1614:A 9.3 
4 *708:16 *1621:A2 16.4429 
5 *708:10 *1798:A1 13.8 
*END

*D_NET *709 0.0018072
*CONN
*I *2185:A I *D sky130_fd_sc_hd__dlygate4sd3_1
*I *1626:A I *D sky130_fd_sc_hd__and3_2
*I *2084:Q O *D sky130_fd_sc_hd__dfrtp_2
*CAP
1 *2185:A 0.000152767
2 *1626:A 0.000391421
3 *2084:Q 0
4 *709:6 0.000544187
5 *1626:A *1783:B2 0
6 *2185:A *1616:A 0
7 *1783:B1 *1626:A 0
8 *1783:B1 *2185:A 0
9 *1784:A *2185:A 0
10 *1788:C1 *1626:A 0.00044361
11 *1788:C1 *2185:A 4.80729e-05
12 *2059:CLK *2185:A 5.52238e-05
13 *2060:D *2185:A 0.00011691
14 *2085:RESET_B *1626:A 5.50052e-05
*RES
1 *2084:Q *709:6 13.8 
2 *709:6 *1626:A 21.6393 
3 *709:6 *2185:A 17.4964 
*END

*D_NET *710 0.00307068
*CONN
*I *2178:A I *D sky130_fd_sc_hd__dlygate4sd3_1
*I *1636:A I *D sky130_fd_sc_hd__and3_2
*I *2083:Q O *D sky130_fd_sc_hd__dfrtp_2
*CAP
1 *2178:A 0.000334438
2 *1636:A 0.000674263
3 *2083:Q 0.000128455
4 *710:8 0.00113716
5 *1636:A *719:60 2.42054e-05
6 mem_addr[11] *1636:A 0.000406714
7 mem_addr[16] *1636:A 0
8 mem_addr[17] *1636:A 6.49154e-05
9 mem_addr[19] *1636:A 0.000112869
10 mem_addr[21] *1636:A 6.45145e-05
11 mem_addr[22] *2178:A 0
12 mem_addr[25] *2178:A 0
13 mem_addr[27] *2178:A 0.000123153
14 *1935:A *2178:A 0
15 *691:36 *1636:A 0
*RES
1 *2083:Q *710:8 15.1571 
2 *710:8 *1636:A 26.3714 
3 *710:8 *2178:A 19.925 
*END

*D_NET *711 0.00346539
*CONN
*I *1799:A1 I *D sky130_fd_sc_hd__a21o_2
*I *1623:A3 I *D sky130_fd_sc_hd__a31o_2
*I *1616:A I *D sky130_fd_sc_hd__inv_2
*I *2101:Q O *D sky130_fd_sc_hd__dfstp_2
*CAP
1 *1799:A1 0
2 *1623:A3 1.32426e-05
3 *1616:A 0.000449783
4 *2101:Q 0.000207261
5 *711:20 0.000935352
6 *711:10 0.000679588
7 *1623:A3 *1615:A 2.28499e-05
8 *1623:A3 *734:71 1.24368e-05
9 *711:10 *1621:B1 0
10 *711:20 *1622:A 0
11 *711:20 *1623:A1 0.000125724
12 *711:20 *1623:B1 8.5662e-05
13 *1632:A1 *1616:A 5.52302e-05
14 *1798:B1 *711:10 5.80706e-06
15 *1798:B1 *711:20 2.84494e-05
16 *1973:A *1616:A 0
17 *2059:CLK *1616:A 0.000228558
18 *2060:D *1616:A 1.02504e-05
19 *2084:RESET_B *1616:A 0
20 *2185:A *1616:A 0
21 *331:10 *1616:A 0
22 *335:10 *1623:A3 5.52238e-05
23 *337:12 *711:20 0.000112429
24 *341:31 *711:20 0.000402766
25 *535:209 *711:10 0
26 *539:24 *711:10 0
27 *539:63 *711:20 3.47797e-05
*RES
1 *2101:Q *711:10 17.1036 
2 *711:10 *711:20 19.1607 
3 *711:20 *1616:A 21.05 
4 *711:20 *1623:A3 14.3357 
5 *711:10 *1799:A1 13.8 
*END

*D_NET *712 0.00401949
*CONN
*I *1747:C I *D sky130_fd_sc_hd__nand3b_2
*I *2248:A I *D sky130_fd_sc_hd__dlygate4sd3_1
*I *1744:B I *D sky130_fd_sc_hd__or2_2
*I *1761:B I *D sky130_fd_sc_hd__or3b_2
*I *1745:B I *D sky130_fd_sc_hd__or3b_2
*I *1750:C_N I *D sky130_fd_sc_hd__or3b_2
*I *2051:Q O *D sky130_fd_sc_hd__dfrtp_2
*CAP
1 *1747:C 0.000123304
2 *2248:A 4.92234e-05
3 *1744:B 0.000102992
4 *1761:B 0
5 *1745:B 0
6 *1750:C_N 0.000176489
7 *2051:Q 0
8 *712:42 0.00034369
9 *712:36 0.00034283
10 *712:25 0.00010568
11 *712:12 0.00033391
12 *712:4 0.000227953
13 *1744:B *1744:A 0.000284722
14 *1747:C *1747:B 2.61505e-05
15 *1747:C *714:36 3.25724e-05
16 *1750:C_N *1750:A 9.71197e-05
17 *1750:C_N *1750:B 0.000245557
18 *1750:C_N *713:16 4.73471e-05
19 *2248:A *1746:B 5.52302e-05
20 *712:12 *713:16 2.04825e-05
21 *712:25 *713:14 4.23086e-05
22 *712:25 *713:16 5.76113e-05
23 *712:36 *713:12 1.17968e-05
24 *712:36 *713:14 6.97972e-05
25 *712:42 *1744:A 3.34366e-05
26 *712:42 *731:124 0
27 *1755:A3 *2248:A 7.3237e-05
28 *1755:A3 *712:42 5.03772e-05
29 *1757:A1 *1750:C_N 0.000405952
30 *1757:A1 *712:25 5.61616e-05
31 *1764:A *712:42 3.67142e-05
32 *2051:RESET_B *1747:C 9.90367e-05
33 *2051:RESET_B *712:12 4.43256e-05
34 *433:12 *1750:C_N 3.25078e-05
35 *436:12 *712:25 6.95631e-05
36 *436:12 *712:36 7.57869e-05
37 *436:33 *1744:B 9.96238e-05
38 *436:33 *712:42 3.28897e-05
39 *437:23 *712:42 7.92975e-05
40 *442:10 *712:42 3.38136e-05
41 *446:12 *1744:B 0
*RES
1 *2051:Q *712:4 9.3 
2 *712:4 *712:12 6.25893 
3 *712:12 *1750:C_N 20.7911 
4 *712:12 *712:25 2.40179 
5 *712:25 *1745:B 13.8 
6 *712:25 *712:36 6.44643 
7 *712:36 *712:42 9.83929 
8 *712:42 *1761:B 13.8 
9 *712:42 *1744:B 17.5679 
10 *712:36 *2248:A 10.6571 
11 *712:4 *1747:C 11.925 
*END

*D_NET *713 0.00604024
*CONN
*I *1744:A I *D sky130_fd_sc_hd__or2_2
*I *1761:C_N I *D sky130_fd_sc_hd__or3b_2
*I *1763:A1 I *D sky130_fd_sc_hd__a22o_2
*I *1746:B I *D sky130_fd_sc_hd__nand2b_2
*I *1745:A I *D sky130_fd_sc_hd__or3b_2
*I *1747:B I *D sky130_fd_sc_hd__nand3b_2
*I *1750:B I *D sky130_fd_sc_hd__or3b_2
*I *2052:Q O *D sky130_fd_sc_hd__dfrtp_2
*CAP
1 *1744:A 0.000116733
2 *1761:C_N 0
3 *1763:A1 9.22474e-05
4 *1746:B 0.000137711
5 *1745:A 0
6 *1747:B 0.000208943
7 *1750:B 0.000446917
8 *2052:Q 0.000118852
9 *713:64 0.000188052
10 *713:60 0.000386342
11 *713:16 0.000782085
12 *713:14 0.000199378
13 *713:12 0.000379727
14 *713:10 0.00046152
15 *1746:B *1746:A_N 5.49544e-05
16 *1747:B *714:36 0.000108895
17 *1750:B *1750:A 9.39925e-05
18 *1750:B *714:12 4.03318e-05
19 *1750:B *714:36 0.00010136
20 *713:12 *714:53 9.69119e-06
21 *713:12 *714:70 7.3634e-05
22 *713:14 *714:40 0
23 *713:14 *714:53 6.08008e-05
24 *713:16 *714:36 1.76135e-05
25 *713:16 *714:40 0
26 *713:60 *1761:A 0.000313241
27 *1744:B *1744:A 0.000284722
28 *1747:C *1747:B 2.61505e-05
29 *1750:C_N *1750:B 0.000245557
30 *1750:C_N *713:16 4.73471e-05
31 *1755:A2 *1746:B 3.08664e-05
32 *1755:A3 *1746:B 5.47415e-05
33 *1763:A2 *1763:A1 0.000134603
34 *1763:A2 *713:60 1.02821e-05
35 *1763:A2 *713:64 4.70078e-05
36 *1763:B2 *1763:A1 3.31038e-05
37 *1763:B2 *713:64 0
38 *1770:A2_N *713:10 0
39 *2051:RESET_B *1747:B 4.43256e-05
40 *2051:RESET_B *713:16 7.79781e-06
41 *2052:D *1763:A1 5.33334e-05
42 *2052:RESET_B *1744:A 0.000125567
43 *2248:A *1746:B 5.52302e-05
44 *427:32 *713:10 0
45 *433:12 *1750:B 0
46 *436:12 *713:12 0
47 *436:33 *1744:A 5.33005e-05
48 *436:33 *713:10 0
49 *436:33 *713:12 0
50 *442:10 *1744:A 0.000104002
51 *446:12 *713:10 2.79092e-05
52 *550:10 *1744:A 2.59355e-05
53 *712:12 *713:16 2.04825e-05
54 *712:25 *713:14 4.23086e-05
55 *712:25 *713:16 5.76113e-05
56 *712:36 *713:12 1.17968e-05
57 *712:36 *713:14 6.97972e-05
58 *712:42 *1744:A 3.34366e-05
*RES
1 *2052:Q *713:10 15.675 
2 *713:10 *713:12 3.16071 
3 *713:12 *713:14 2.55357 
4 *713:14 *713:16 2.85714 
5 *713:16 *1750:B 22.4964 
6 *713:16 *1747:B 17.6571 
7 *713:14 *1745:A 13.8 
8 *713:12 *1746:B 16.8 
9 *713:10 *713:60 7.91071 
10 *713:60 *713:64 1.78571 
11 *713:64 *1763:A1 11.9071 
12 *713:64 *1761:C_N 9.3 
13 *713:60 *1744:A 22.9071 
*END

*D_NET *714 0.00462492
*CONN
*I *1747:A_N I *D sky130_fd_sc_hd__nand3b_2
*I *1770:B2 I *D sky130_fd_sc_hd__o2bb2a_2
*I *1761:A I *D sky130_fd_sc_hd__or3b_2
*I *1746:A_N I *D sky130_fd_sc_hd__nand2b_2
*I *1745:C_N I *D sky130_fd_sc_hd__or3b_2
*I *2244:A I *D sky130_fd_sc_hd__dlygate4sd3_1
*I *1750:A I *D sky130_fd_sc_hd__or3b_2
*I *2053:Q O *D sky130_fd_sc_hd__dfrtp_2
*CAP
1 *1747:A_N 0
2 *1770:B2 4.71256e-05
3 *1761:A 0.000106049
4 *1746:A_N 1.47133e-05
5 *1745:C_N 0
6 *2244:A 0
7 *1750:A 0.000130053
8 *2053:Q 0.000108855
9 *714:70 0.000356135
10 *714:53 0.000379272
11 *714:40 0.000324345
12 *714:36 0.000371567
13 *714:12 0.00019736
14 *714:8 0.000384982
15 *1746:B *1746:A_N 5.49544e-05
16 *1747:B *714:36 0.000108895
17 *1747:C *714:36 3.25724e-05
18 *1750:B *1750:A 9.39925e-05
19 *1750:B *714:12 4.03318e-05
20 *1750:B *714:36 0.00010136
21 *1750:C_N *1750:A 9.71197e-05
22 *1755:A3 *1746:A_N 2.84109e-05
23 *1756:A *714:36 0
24 *1757:A0 *714:8 3.72932e-05
25 *1763:A2 *1761:A 5.03772e-05
26 *1770:A1_N *1761:A 0.000140859
27 *1770:A1_N *1770:B2 3.81196e-05
28 *1770:A2_N *714:70 3.69697e-05
29 *1942:A *1750:A 0.000481575
30 *1942:A *714:12 9.97164e-05
31 *1942:A *714:36 9.11048e-06
32 *2051:RESET_B *714:36 0.000179025
33 *2051:RESET_B *714:40 9.11048e-06
34 *437:6 *1761:A 8.96921e-05
35 *713:12 *714:53 9.69119e-06
36 *713:12 *714:70 7.3634e-05
37 *713:14 *714:40 0
38 *713:14 *714:53 6.08008e-05
39 *713:16 *714:36 1.76135e-05
40 *713:16 *714:40 0
41 *713:60 *1761:A 0.000313241
*RES
1 *2053:Q *714:8 15.1571 
2 *714:8 *714:12 6.14286 
3 *714:12 *1750:A 13.9429 
4 *714:12 *2244:A 9.3 
5 *714:8 *714:36 9.69643 
6 *714:36 *714:40 6.75 
7 *714:40 *1745:C_N 13.8 
8 *714:40 *714:53 3.51786 
9 *714:53 *1746:A_N 14.3357 
10 *714:53 *714:70 7.71429 
11 *714:70 *1761:A 13.1214 
12 *714:70 *1770:B2 10.2643 
13 *714:36 *1747:A_N 9.3 
*END

*D_NET *715 0.00099801
*CONN
*I *2237:A I *D sky130_fd_sc_hd__dlygate4sd3_1
*I *1753:A_N I *D sky130_fd_sc_hd__nand2b_2
*I *2100:Q O *D sky130_fd_sc_hd__dfrtp_2
*CAP
1 *2237:A 0.000128884
2 *1753:A_N 9.95895e-05
3 *2100:Q 0
4 *715:4 0.000228474
5 *1753:A_N *731:124 0.000197378
6 *1723:B1 *2237:A 1.84776e-05
7 *701:24 *2237:A 0.000325206
*RES
1 *2100:Q *715:4 9.3 
2 *715:4 *1753:A_N 20.8536 
3 *715:4 *2237:A 12.7107 
*END

*D_NET *716 0.00544006
*CONN
*I *1741:A2 I *D sky130_fd_sc_hd__a22o_2
*I *1734:B I *D sky130_fd_sc_hd__nand2_2
*I *1843:B1_N I *D sky130_fd_sc_hd__a21boi_2
*I *1796:C I *D sky130_fd_sc_hd__and3_2
*I *2095:Q O *D sky130_fd_sc_hd__dfrtp_2
*CAP
1 *1741:A2 0.000272346
2 *1734:B 0.000222433
3 *1843:B1_N 3.82418e-05
4 *1796:C 0.000347294
5 *2095:Q 9.11868e-05
6 *716:10 0.000531845
7 *716:8 0.000496817
8 *716:6 0.000491608
9 *1741:A2 *1741:A1 0.00029526
10 *1741:A2 *1796:A 0.000126439
11 *1741:A2 *721:14 5.52302e-05
12 *1741:A2 *721:25 0.000163822
13 *1734:A *1734:B 0.000210469
14 *1743:A2 *1741:A2 9.47712e-05
15 *1743:A3 *1741:A2 0.000125717
16 *1755:B1 *1796:C 6.26673e-05
17 *1766:B1_N *1796:C 7.83659e-05
18 *1797:B1 *1796:C 1.21258e-05
19 *1797:C1 *1796:C 3.17163e-05
20 *2094:CLK *1741:A2 0.000189335
21 *2175:A *716:6 0.000139907
22 *2175:A *716:8 0.000178847
23 *2175:A *716:10 5.33005e-05
24 *13:12 *1734:B 1.56789e-05
25 *13:12 *1796:C 0
26 *444:8 *1796:C 3.13225e-05
27 *552:62 *1741:A2 0.000290264
28 *556:14 *1734:B 0.000351747
29 *556:20 *1734:B 5.59013e-05
30 *692:78 *1734:B 0.000385406
*RES
1 *2095:Q *716:6 10.6571 
2 *716:6 *716:8 1.76786 
3 *716:8 *716:10 1.76786 
4 *716:10 *1796:C 23.5679 
5 *716:10 *1843:B1_N 10.0321 
6 *716:8 *1734:B 26.3179 
7 *716:6 *1741:A2 27.7286 
*END

*D_NET *717 0.00235306
*CONN
*I *2213:A I *D sky130_fd_sc_hd__dlygate4sd3_1
*I *1738:A I *D sky130_fd_sc_hd__nor2_2
*I *1715:C I *D sky130_fd_sc_hd__and3b_2
*I *2096:Q O *D sky130_fd_sc_hd__dfrtp_2
*CAP
1 *2213:A 0.000205146
2 *1738:A 0.000128836
3 *1715:C 4.67265e-05
4 *2096:Q 9.28883e-05
5 *717:21 0.000370856
6 *717:10 0.000176489
7 *1714:A_N *717:10 9.96487e-05
8 *1795:A1 *1715:C 7.25052e-05
9 *1795:A1 *2213:A 0.000182804
10 *1795:A1 *717:21 0.000137639
11 *2162:A *1715:C 0.000146187
12 *2162:A *1738:A 0.000386479
13 *2162:A *2213:A 2.12647e-05
14 *2162:A *717:21 6.62144e-05
15 *706:12 *1738:A 0.000197131
16 *706:12 *717:10 2.22419e-05
*RES
1 *2096:Q *717:10 19.9429 
2 *717:10 *1715:C 11.1259 
3 *717:10 *717:21 1.35714 
4 *717:21 *1738:A 23.2821 
5 *717:21 *2213:A 13.5321 
*END

*D_NET *718 0.0029817
*CONN
*I *1633:C I *D sky130_fd_sc_hd__and3_2
*I *1612:A I *D sky130_fd_sc_hd__inv_2
*I *2097:Q O *D sky130_fd_sc_hd__dfrtp_2
*CAP
1 *1633:C 0.000179918
2 *1612:A 0.000288084
3 *2097:Q 0.000580176
4 *718:10 0.00104818
5 *1633:A *1612:A 1.08359e-05
6 *1633:A *1633:C 5.33005e-05
7 *1633:A *718:10 4.93928e-05
8 *1735:A2 *1612:A 1.32293e-05
9 *1736:A2 *1612:A 0.000217336
10 *1736:A2 *1633:C 5.33005e-05
11 *1736:B1 *1633:C 5.51918e-05
12 *1944:A *718:10 0.000331205
13 *2055:D *1612:A 0
14 *2055:D *718:10 0
15 *13:12 *1612:A 0
16 *13:12 *718:10 0
17 *13:14 *718:10 2.66958e-05
18 *694:67 *1612:A 7.4854e-05
*RES
1 *2097:Q *718:10 23.5143 
2 *718:10 *1612:A 19.5679 
3 *718:10 *1633:C 15.9786 
*END

*D_NET *719 0.00645597
*CONN
*I *1636:B I *D sky130_fd_sc_hd__and3_2
*I *1794:A1 I *D sky130_fd_sc_hd__a211o_2
*I *1741:B1 I *D sky130_fd_sc_hd__a22o_2
*I *1742:B I *D sky130_fd_sc_hd__nand3b_2
*I *1635:A I *D sky130_fd_sc_hd__nand2_2
*I *1717:B I *D sky130_fd_sc_hd__nand3_2
*I *2098:Q O *D sky130_fd_sc_hd__dfrtp_2
*CAP
1 *1636:B 0
2 *1794:A1 0
3 *1741:B1 0.000207383
4 *1742:B 0.000353505
5 *1635:A 2.33213e-05
6 *1717:B 0.000363055
7 *2098:Q 0.000507154
8 *719:66 0.000427976
9 *719:60 0.000492598
10 *719:14 0.000479422
11 *719:10 0.000681699
12 *1741:B1 *721:25 7.56557e-05
13 *1741:B1 *721:36 3.28686e-05
14 *1742:B *1742:C 3.93247e-05
15 *719:10 *1636:C 0.000101545
16 *719:14 *1636:C 0.000216304
17 *719:60 *1636:C 0
18 mem_addr[10] *1742:B 0.000315152
19 mem_addr[8] *1635:A 2.27416e-05
20 mem_addr[8] *1717:B 5.30154e-05
21 *1636:A *719:60 2.42054e-05
22 *1718:A1 *1717:B 6.62783e-05
23 *1742:A_N *1742:B 9.31893e-05
24 *1743:A3 *1742:B 0
25 *1743:B1 *719:66 5.71472e-05
26 *1793:A *1717:B 5.46298e-05
27 *1794:A2 *1717:B 0.00010096
28 *1794:A2 *1741:B1 0.000150625
29 *1794:B1 *1741:B1 7.83366e-05
30 *1987:A *719:66 0.000142856
31 *2098:CLK *1741:B1 6.26078e-05
32 *2196:A *1717:B 7.02611e-05
33 *348:20 *719:10 9.40167e-05
34 *348:20 *719:14 0.000220455
35 *348:20 *719:60 0
36 *348:20 *719:66 0.000212202
37 *349:6 *719:66 0.000519869
38 *556:88 *1717:B 5.52238e-05
39 *701:74 *719:60 6.03809e-05
*RES
1 *2098:Q *719:10 17.3179 
2 *719:10 *719:14 7.35714 
3 *719:14 *1717:B 16.4429 
4 *719:14 *1635:A 9.83571 
5 *719:10 *1742:B 20.6571 
6 *2098:Q *719:60 22.6214 
7 *719:60 *719:66 7.44643 
8 *719:66 *1741:B1 22.8357 
9 *719:66 *1794:A1 9.3 
10 *719:60 *1636:B 9.3 
*END

*D_NET *720 0.0023242
*CONN
*I *2226:A I *D sky130_fd_sc_hd__dlygate4sd3_1
*I *1635:B I *D sky130_fd_sc_hd__nand2_2
*I *1636:C I *D sky130_fd_sc_hd__and3_2
*I *2092:Q O *D sky130_fd_sc_hd__dfrtp_2
*CAP
1 *2226:A 2.5274e-05
2 *1635:B 0
3 *1636:C 0.000327659
4 *2092:Q 0.0002279
5 *720:14 0.000476545
6 *720:12 0.000402059
7 mem_addr[8] *1636:C 2.84026e-05
8 mem_addr[8] *2226:A 2.23592e-05
9 mem_addr[8] *720:12 4.72217e-05
10 mem_addr[8] *720:14 0.00015432
11 *1792:A *1636:C 0
12 *348:20 *1636:C 0.000143984
13 *691:36 *720:12 0.000150625
14 *701:57 *1636:C 0
15 *701:74 *1636:C 0
16 *719:10 *1636:C 0.000101545
17 *719:14 *1636:C 0.000216304
18 *719:60 *1636:C 0
*RES
1 *2092:Q *720:12 22.0143 
2 *720:12 *720:14 3 
3 *720:14 *1636:C 25.8714 
4 *720:14 *1635:B 9.3 
5 *720:12 *2226:A 9.83571 
*END

*D_NET *721 0.0032051
*CONN
*I *1742:C I *D sky130_fd_sc_hd__nand3b_2
*I *1717:C I *D sky130_fd_sc_hd__nand3_2
*I *1741:B2 I *D sky130_fd_sc_hd__a22o_2
*I *2214:A I *D sky130_fd_sc_hd__dlygate4sd3_1
*I *2093:Q O *D sky130_fd_sc_hd__dfrtp_2
*CAP
1 *1742:C 0.000169668
2 *1717:C 5.18825e-05
3 *1741:B2 0
4 *2214:A 0
5 *2093:Q 0.000392461
6 *721:36 0.000333257
7 *721:25 0.000197124
8 *721:14 0.000477878
9 *721:25 *1741:A1 4.41397e-05
10 *1741:A2 *721:14 5.52302e-05
11 *1741:A2 *721:25 0.000163822
12 *1741:B1 *721:25 7.56557e-05
13 *1741:B1 *721:36 3.28686e-05
14 *1742:B *1742:C 3.93247e-05
15 *1743:A3 *1742:C 2.51343e-06
16 *1743:A3 *721:14 0.000151061
17 *1791:B1 *721:14 0
18 *1794:B1 *1717:C 7.8327e-05
19 *1794:B1 *721:36 0.000129185
20 *2094:CLK *721:14 5.52302e-05
21 *2094:CLK *721:25 0.000264962
22 *2098:CLK *721:25 1.59935e-05
23 *2098:CLK *721:36 9.94194e-06
24 *426:43 *721:14 5.52238e-05
25 *537:10 *721:36 5.66157e-05
26 *537:12 *721:14 0
27 *537:12 *721:36 0.000175512
28 *537:14 *1717:C 0.000152333
29 *537:14 *721:36 2.48938e-05
*RES
1 *2093:Q *721:14 25.7286 
2 *721:14 *2214:A 9.3 
3 *721:14 *721:25 3.75893 
4 *721:25 *1741:B2 9.3 
5 *721:25 *721:36 7.99107 
6 *721:36 *1717:C 15.7464 
7 *721:36 *1742:C 16.4071 
*END

*D_NET *722 0.00193533
*CONN
*I *2216:A I *D sky130_fd_sc_hd__dlygate4sd3_1
*I *1715:B I *D sky130_fd_sc_hd__and3b_2
*I *1714:B I *D sky130_fd_sc_hd__nand2b_2
*I *2054:Q O *D sky130_fd_sc_hd__dfrtp_2
*CAP
1 *2216:A 4.93223e-05
2 *1715:B 4.17337e-05
3 *1714:B 0.000273158
4 *2054:Q 0.000105329
5 *722:12 0.000379726
6 *722:10 0.000219486
7 *1714:A_N *1714:B 0
8 *1740:A2 *2216:A 7.36469e-05
9 *1740:A2 *722:10 4.49141e-05
10 *1740:A2 *722:12 1.75535e-05
11 *1795:A1 *1715:B 2.85321e-05
12 *1795:A2 *1714:B 6.14321e-05
13 *2096:RESET_B *1714:B 0.000173566
14 *407:12 *1714:B 1.00887e-05
15 *407:12 *722:10 0.000139954
16 *407:12 *722:12 0.000115591
17 *421:25 *722:10 1.84865e-05
18 *692:14 *2216:A 0.000182811
*RES
1 *2054:Q *722:10 16.2821 
2 *722:10 *722:12 1.64286 
3 *722:12 *1714:B 19.3893 
4 *722:12 *1715:B 14.3357 
5 *722:10 *2216:A 15.5679 
*END

*D_NET *723 0.00439564
*CONN
*I *1706:C I *D sky130_fd_sc_hd__and4b_2
*I *1785:B1 I *D sky130_fd_sc_hd__o21a_2
*I *1732:B1 I *D sky130_fd_sc_hd__o21a_2
*I *2057:Q O *D sky130_fd_sc_hd__dfrtp_2
*CAP
1 *1706:C 0.000119302
2 *1785:B1 0.000158294
3 *1732:B1 0.00027469
4 *2057:Q 0.000845068
5 *723:19 0.00039687
6 *723:8 0.00123903
7 *1706:C *1706:D 6.57032e-05
8 *1732:B1 *724:12 1.06305e-05
9 *1785:B1 *1706:D 3.96483e-05
10 *1785:B1 *1708:A_N 0.000125731
11 *1785:B1 *738:10 1.0609e-05
12 *1785:B1 *738:29 6.09521e-05
13 *723:8 *1731:A1 3.06878e-06
14 *723:19 *724:12 5.80494e-05
15 *1732:A1 *1732:B1 0
16 *1732:A2 *1732:B1 0.000385169
17 *1732:A2 *723:8 5.33005e-05
18 *1848:A *723:8 6.17428e-05
19 *2057:CLK *723:8 5.23735e-05
20 *291:22 *1732:B1 6.94441e-06
21 *291:22 *723:8 3.15815e-05
22 *329:12 *1732:B1 9.92454e-05
23 *329:12 *1785:B1 1.13495e-05
24 *329:12 *723:19 0.000264841
25 *478:20 *1732:B1 6.14702e-06
26 *479:18 *1732:B1 0
27 *705:16 *1785:B1 1.52978e-05
*RES
1 *2057:Q *723:8 23.7821 
2 *723:8 *1732:B1 19.6929 
3 *723:8 *723:19 3.46429 
4 *723:19 *1785:B1 17.9071 
5 *723:19 *1706:C 15.1571 
*END

*D_NET *724 0.00295552
*CONN
*I *1729:B1 I *D sky130_fd_sc_hd__o21a_2
*I *1786:B1 I *D sky130_fd_sc_hd__o21a_2
*I *1708:C I *D sky130_fd_sc_hd__and4b_2
*I *2058:Q O *D sky130_fd_sc_hd__dfrtp_2
*CAP
1 *1729:B1 4.08227e-05
2 *1786:B1 8.59876e-05
3 *1708:C 6.17847e-05
4 *2058:Q 0.000342612
5 *724:16 0.000300956
6 *724:12 0.000536618
7 *1708:C *1708:D 5.33005e-05
8 *1708:C *739:26 0.000135028
9 *1786:B1 *1707:A 5.52302e-05
10 *1786:B1 *733:20 5.84171e-05
11 *724:12 *738:10 2.53112e-06
12 *1706:B *1786:B1 5.59013e-05
13 *1706:B *724:16 0.00019467
14 *1728:B1 *724:16 8.88933e-05
15 *1730:B *1729:B1 4.11486e-05
16 *1730:B *724:12 7.25873e-06
17 *1731:B1 *724:16 0.000264934
18 *1732:A1 *1729:B1 5.33005e-05
19 *1732:A1 *724:16 3.29297e-05
20 *1732:A2 *724:12 0.000172443
21 *1732:B1 *724:12 1.06305e-05
22 *2057:CLK *724:12 1.94945e-05
23 *291:22 *724:12 0.000101771
24 *329:12 *1786:B1 8.47107e-05
25 *329:12 *724:16 6.71851e-05
26 *705:57 *1786:B1 2.89114e-05
27 *723:19 *724:12 5.80494e-05
*RES
1 *2058:Q *724:12 24.55 
2 *724:12 *724:16 9.78571 
3 *724:16 *1708:C 15.1571 
4 *724:16 *1786:B1 16.5857 
5 *724:12 *1729:B1 10.2464 
*END

*D_NET *725 0.00165952
*CONN
*I *2169:A I *D sky130_fd_sc_hd__dlygate4sd3_1
*I *1633:B I *D sky130_fd_sc_hd__and3_2
*I *2055:Q O *D sky130_fd_sc_hd__dfrtp_2
*CAP
1 *2169:A 0.000107826
2 *1633:B 0.000180049
3 *2055:Q 0.00013757
4 *725:6 0.000425445
5 *1842:B1 *1633:B 0.000213706
6 *1944:A *1633:B 1.24548e-05
7 *1986:A *1633:B 0.000431497
8 *328:8 *1633:B 3.34295e-05
9 *565:10 *2169:A 8.86413e-05
10 *565:10 *725:6 2.89016e-05
*RES
1 *2055:Q *725:6 11.4786 
2 *725:6 *1633:B 23.8893 
3 *725:6 *2169:A 11.4786 
*END

*D_NET *726 0.00533572
*CONN
*I *1620:A I *D sky130_fd_sc_hd__nand2_2
*I *2223:A I *D sky130_fd_sc_hd__dlygate4sd3_1
*I *1621:A1 I *D sky130_fd_sc_hd__a31o_2
*I *1783:A1 I *D sky130_fd_sc_hd__a22o_2
*I *2059:Q O *D sky130_fd_sc_hd__dfrtp_2
*CAP
1 *1620:A 0.000391794
2 *2223:A 1.21645e-05
3 *1621:A1 0.000175392
4 *1783:A1 0.000207274
5 *2059:Q 0
6 *726:34 0.000514258
7 *726:8 0.00106518
8 *726:4 0.000792808
9 *1620:A *1620:B 7.83659e-05
10 *1621:A1 *1722:A1 0.00012401
11 *1621:A1 *727:40 0.000185304
12 *1783:A1 *1722:A1 9.71532e-05
13 *1783:A1 *727:25 0.000148903
14 *1783:A1 *727:40 0.000247786
15 *1783:A1 *731:124 0.000494325
16 *2223:A *1841:A 5.49544e-05
17 *726:8 *1721:A1 1.07719e-05
18 *1621:A2 *1621:A1 9.60875e-05
19 *1783:B1 *1783:A1 0.000111102
20 *1798:A2 *1620:A 0.000373141
21 *1841:B *2223:A 5.49544e-05
22 *1841:B *726:34 0
23 *2059:RESET_B *726:8 1.20135e-05
24 *13:14 *1620:A 6.30345e-05
25 *535:15 *1621:A1 0
26 *708:16 *1620:A 2.49484e-05
*RES
1 *2059:Q *726:4 9.3 
2 *726:4 *726:8 12.0179 
3 *726:8 *1783:A1 22.05 
4 *726:8 *1621:A1 17.3 
5 *726:4 *726:34 6.14286 
6 *726:34 *2223:A 14.3357 
7 *726:34 *1620:A 20.8357 
*END

*D_NET *727 0.00457253
*CONN
*I *1622:A I *D sky130_fd_sc_hd__nand2_2
*I *1623:A1 I *D sky130_fd_sc_hd__a31o_2
*I *2222:A I *D sky130_fd_sc_hd__dlygate4sd3_1
*I *1783:B2 I *D sky130_fd_sc_hd__a22o_2
*I *2060:Q O *D sky130_fd_sc_hd__dfrtp_2
*CAP
1 *1622:A 0.000116945
2 *1623:A1 0.000221001
3 *2222:A 0.000107746
4 *1783:B2 0.00021924
5 *2060:Q 0.000109273
6 *727:40 0.000629616
7 *727:25 0.000447624
8 *727:6 0.000376719
9 *1622:A *1621:B1 0.000222885
10 *1623:A1 *1622:B 4.58194e-05
11 *1623:A1 *1623:B1 0.000125724
12 *1623:A1 *734:44 6.05161e-06
13 *727:40 *1621:B1 0
14 *727:40 *734:44 6.87574e-05
15 *727:40 *734:63 4.35048e-05
16 *1621:A1 *727:40 0.000185304
17 *1626:A *1783:B2 0
18 *1783:A1 *727:25 0.000148903
19 *1783:A1 *727:40 0.000247786
20 *1783:B1 *1783:B2 0.00022211
21 *1783:B1 *727:25 0.000150625
22 *1783:B1 *727:40 0.000210198
23 *1784:B *2222:A 0.00022266
24 *1798:B1 *1622:A 0
25 *1798:B1 *727:40 1.19309e-05
26 *2060:RESET_B *1783:B2 4.26814e-05
27 *331:10 *727:40 0
28 *341:31 *1623:A1 4.58194e-05
29 *535:6 *1623:A1 6.05161e-06
30 *535:6 *727:40 7.48091e-05
31 *535:15 *727:40 0
32 *551:18 *1783:B2 4.84159e-05
33 *551:18 *727:6 6.3629e-05
34 *684:10 *1623:A1 1.58163e-05
35 *694:118 *1783:B2 9.15842e-06
36 *711:20 *1622:A 0
37 *711:20 *1623:A1 0.000125724
*RES
1 *2060:Q *727:6 10.6571 
2 *727:6 *1783:B2 22.9429 
3 *727:6 *727:25 6.44643 
4 *727:25 *2222:A 15.9786 
5 *727:25 *727:40 12.9643 
6 *727:40 *1623:A1 22.9429 
7 *727:40 *1622:A 21.1571 
*END

*D_NET *728 0.00383863
*CONN
*I *2182:A I *D sky130_fd_sc_hd__dlygate4sd3_1
*I *1758:A1 I *D sky130_fd_sc_hd__a22o_2
*I *1719:A I *D sky130_fd_sc_hd__and3_2
*I *2061:Q O *D sky130_fd_sc_hd__dfrtp_2
*CAP
1 *2182:A 0
2 *1758:A1 0.000588963
3 *1719:A 0.000655834
4 *2061:Q 9.61995e-05
5 *728:27 0.000865173
6 *728:10 0.00102824
7 *1719:A *1719:C 9.90367e-05
8 *1758:A1 *1758:A2 3.046e-05
9 *1719:B *1719:A 7.76952e-05
10 *1760:A2 *1758:A1 1.15281e-05
11 *1977:A *1758:A1 9.90367e-05
12 *2061:RESET_B *728:10 8.05676e-05
13 *2061:RESET_B *728:27 7.36174e-05
14 *2088:D *728:27 0.000128146
15 *550:12 *728:27 0
16 *550:14 *728:27 0
17 *681:8 *728:10 0
18 *681:8 *728:27 0
19 *681:19 *728:27 0
20 *681:32 *728:27 4.1331e-06
*RES
1 *2061:Q *728:10 15.3714 
2 *728:10 *1719:A 22.2821 
3 *728:10 *728:27 10.0893 
4 *728:27 *1758:A1 18.0679 
5 *728:27 *2182:A 9.3 
*END

*D_NET *729 0.00445324
*CONN
*I *2174:A I *D sky130_fd_sc_hd__dlygate4sd3_1
*I *1741:A1 I *D sky130_fd_sc_hd__a22o_2
*I *1796:A I *D sky130_fd_sc_hd__and3_2
*I *2056:Q O *D sky130_fd_sc_hd__dfrtp_2
*CAP
1 *2174:A 0.000108605
2 *1741:A1 0.000437704
3 *1796:A 0.000646992
4 *2056:Q 0.000646992
5 *729:30 0.00054631
6 *1741:A2 *1741:A1 0.00029526
7 *1741:A2 *1796:A 0.000126439
8 *1743:A2 *1741:A1 0.000222386
9 *1743:A3 *1741:A1 0
10 *1743:B1 *1796:A 0
11 *1797:A2 *1796:A 0.000271345
12 *1797:B1 *1796:A 5.17614e-05
13 *1945:A *2174:A 9.67754e-05
14 *2056:CLK *1796:A 6.4443e-05
15 *2056:RESET_B *1741:A1 0
16 *2056:RESET_B *2174:A 4.97967e-05
17 *2094:D *1796:A 5.33005e-05
18 *2152:A *1741:A1 0
19 *2175:A *1741:A1 0.000218313
20 *2175:A *1796:A 2.59355e-05
21 *426:22 *1796:A 9.41642e-05
22 *535:176 *1741:A1 0.00021209
23 *535:190 *1741:A1 3.80798e-05
24 *535:190 *2174:A 6.13812e-05
25 *537:10 *1741:A1 0
26 *552:62 *1796:A 9.88136e-05
27 *556:20 *1796:A 2.14757e-05
28 *556:31 *1796:A 2.07382e-05
29 *721:25 *1741:A1 4.41397e-05
*RES
1 *2056:Q *1796:A 40.1714 
2 *2056:Q *729:30 13.8 
3 *729:30 *1741:A1 24.925 
4 *729:30 *2174:A 16.3893 
*END

*D_NET *730 0.00196536
*CONN
*I *2231:A I *D sky130_fd_sc_hd__dlygate4sd3_1
*I *1751:A_N I *D sky130_fd_sc_hd__nand2b_2
*I *2099:Q O *D sky130_fd_sc_hd__dfrtp_2
*CAP
1 *2231:A 0.000195254
2 *1751:A_N 0.000215473
3 *2099:Q 0.00011396
4 *730:6 0.000524687
5 *1751:A_N *1751:B 5.52238e-05
6 *1751:A_N *731:72 0
7 *1723:A1 *1751:A_N 5.71472e-05
8 *1723:B1 *1751:A_N 0.0004101
9 *1768:A2 *1751:A_N 0
10 *434:12 *1751:A_N 0.000107174
11 *436:12 *2231:A 0.000124019
12 *689:17 *2231:A 9.40308e-05
13 *689:17 *730:6 6.82912e-05
*RES
1 *2099:Q *730:6 10.6571 
2 *730:6 *1751:A_N 24.7286 
3 *730:6 *2231:A 21.7107 
*END

*D_NET *731 0.0140192
*CONN
*I *1722:A1 I *D sky130_fd_sc_hd__o31a_2
*I *1721:A1 I *D sky130_fd_sc_hd__o31a_2
*I *1753:B I *D sky130_fd_sc_hd__nand2b_2
*I *1724:A2 I *D sky130_fd_sc_hd__a21oi_2
*I *1751:B I *D sky130_fd_sc_hd__nand2b_2
*I *1723:A2 I *D sky130_fd_sc_hd__a21oi_2
*I *1727:B1 I *D sky130_fd_sc_hd__o21a_2
*I *1728:A1 I *D sky130_fd_sc_hd__a21oi_2
*I *1731:A1 I *D sky130_fd_sc_hd__a21oi_2
*I *1610:A I *D sky130_fd_sc_hd__inv_2
*I *2087:Q O *D sky130_fd_sc_hd__dfstp_2
*CAP
1 *1722:A1 0.000121929
2 *1721:A1 0.00022184
3 *1753:B 0
4 *1724:A2 0
5 *1751:B 0.000176344
6 *1723:A2 2.49249e-05
7 *1727:B1 0
8 *1728:A1 0
9 *1731:A1 0.00029526
10 *1610:A 0.000239766
11 *2087:Q 0
12 *731:124 0.00177099
13 *731:109 0.00170347
14 *731:96 0.000315662
15 *731:72 0.000320716
16 *731:68 0.000434451
17 *731:41 0.000764261
18 *731:29 0.000469001
19 *731:12 0.000672792
20 *731:4 0.000708617
21 *1722:A1 *1621:B1 0
22 *1621:A1 *1722:A1 0.00012401
23 *1621:A2 *1722:A1 7.48091e-05
24 *1720:A2 *1610:A 2.12733e-05
25 *1722:A2 *1722:A1 3.57366e-05
26 *1722:A3 *1722:A1 0.000140933
27 *1723:A1 *1751:B 0.000289301
28 *1723:B1 *1751:B 9.59983e-05
29 *1723:B1 *731:72 0
30 *1723:B1 *731:124 7.47942e-05
31 *1726:B *1610:A 1.24912e-05
32 *1726:B *731:12 1.46689e-05
33 *1726:B *731:41 0.000483965
34 *1728:A2 *1731:A1 0.000134702
35 *1729:A2 *731:41 9.58181e-05
36 *1730:B *731:41 7.92378e-05
37 *1731:A2 *1731:A1 4.31966e-05
38 *1732:A2 *1731:A1 4.12921e-06
39 *1751:A_N *1751:B 5.52238e-05
40 *1751:A_N *731:72 0
41 *1753:A_N *731:124 0.000197378
42 *1757:A0 *731:124 0
43 *1763:B2 *731:124 6.63314e-05
44 *1764:A *731:124 0.000129868
45 *1768:A1 *1751:B 0
46 *1783:A1 *1722:A1 9.71532e-05
47 *1783:A1 *731:124 0.000494325
48 *1790:A *1610:A 4.54426e-05
49 *1832:B *731:68 7.15503e-05
50 *1833:B *731:12 9.67754e-05
51 *1833:B *731:68 2.24804e-05
52 *2051:D *731:124 5.33786e-05
53 *2052:D *731:124 6.74911e-05
54 *2052:RESET_B *731:124 0
55 *2053:D *731:124 0.000173799
56 *2053:RESET_B *731:124 5.56943e-05
57 *2057:CLK *731:41 0.000327536
58 *2059:CLK *1721:A1 0.000112995
59 *2059:D *1722:A1 0.000127439
60 *2087:D *1610:A 0.000264703
61 *2087:D *731:12 8.09674e-05
62 *2099:CLK *731:41 1.24368e-05
63 *2099:RESET_B *731:109 3.37618e-05
64 *2156:A *731:12 4.82354e-05
65 *326:6 *1610:A 5.49995e-05
66 *411:8 *1723:A2 2.27416e-05
67 *411:8 *1751:B 1.21289e-05
68 *412:8 *731:68 0.000110761
69 *412:14 *731:12 2.24718e-05
70 *412:14 *731:68 3.24049e-05
71 *435:12 *731:124 0.000143633
72 *436:12 *731:124 0
73 *437:23 *731:124 0
74 *442:10 *731:124 0.000154066
75 *535:15 *1722:A1 3.25071e-05
76 *535:15 *731:124 0.000212904
77 *535:33 *731:124 4.24536e-05
78 *544:40 *1610:A 0.000311309
79 *544:42 *731:41 7.74613e-05
80 *550:12 *731:124 0
81 *550:14 *731:124 0
82 *550:36 *731:109 2.85321e-05
83 *550:36 *731:124 0.000100074
84 *680:10 *731:12 2.03801e-05
85 *680:14 *731:12 2.64731e-05
86 *694:118 *731:124 0
87 *712:42 *731:124 0
88 *723:8 *1731:A1 3.06878e-06
89 *726:8 *1721:A1 1.07719e-05
*RES
1 *2087:Q *731:4 9.3 
2 *731:4 *731:12 12.9464 
3 *731:12 *1610:A 20.3893 
4 *731:12 *731:29 4.5 
5 *731:29 *731:41 19.125 
6 *731:41 *1731:A1 13.8893 
7 *731:41 *1728:A1 9.3 
8 *731:29 *1727:B1 9.3 
9 *731:4 *731:68 9.96429 
10 *731:68 *731:72 6.44643 
11 *731:72 *1723:A2 9.83571 
12 *731:72 *1751:B 14.6393 
13 *731:68 *731:96 0.732143 
14 *731:96 *1724:A2 13.8 
15 *731:96 *731:109 9.71429 
16 *731:109 *1753:B 9.3 
17 *731:109 *731:124 38.3214 
18 *731:124 *1721:A1 17.2286 
19 *731:124 *1722:A1 18.4429 
*END

*D_NET *732 0.00120215
*CONN
*I *1758:A2 I *D sky130_fd_sc_hd__a22o_2
*I *1774:B1_N I *D sky130_fd_sc_hd__a21boi_2
*I *1719:C I *D sky130_fd_sc_hd__and3_2
*I *2088:Q O *D sky130_fd_sc_hd__dfrtp_2
*CAP
1 *1758:A2 0.000108194
2 *1774:B1_N 0
3 *1719:C 0.000133853
4 *2088:Q 0.000241535
5 *732:22 0.000215876
6 *1719:A *1719:C 9.90367e-05
7 *1719:B *1719:C 2.15245e-05
8 *1719:B *732:22 5.52238e-05
9 *1758:A1 *1758:A2 3.046e-05
10 *1760:A2 *1758:A2 3.69047e-06
11 *413:31 *732:22 0.000126439
12 *544:34 *1758:A2 7.15687e-05
13 *544:34 *732:22 9.47456e-05
14 *555:84 *1758:A2 0
15 *555:86 *1758:A2 0
16 *555:86 *732:22 0
*RES
1 *2088:Q *1719:C 20.3679 
2 *2088:Q *732:22 16.5857 
3 *732:22 *1774:B1_N 13.8 
4 *732:22 *1758:A2 16.05 
*END

*D_NET *733 0.00557545
*CONN
*I *2242:A I *D sky130_fd_sc_hd__dlygate4sd3_1
*I *1613:A I *D sky130_fd_sc_hd__inv_2
*I *1708:D I *D sky130_fd_sc_hd__and4b_2
*I *1706:D I *D sky130_fd_sc_hd__and4b_2
*I *2089:Q O *D sky130_fd_sc_hd__dfrtp_2
*CAP
1 *2242:A 0.000325694
2 *1613:A 4.43962e-05
3 *1708:D 3.26166e-05
4 *1706:D 0.000377421
5 *2089:Q 0.000207093
6 *733:20 0.000763931
7 *733:16 0.000682612
8 *733:8 0.00081711
9 *1706:D *1708:A_N 0.000112777
10 *1708:D *739:26 2.23592e-05
11 *733:20 *1786:A1 1.88933e-05
12 *1606:A *733:20 7.70035e-05
13 *1706:B *1706:D 0.000117011
14 *1706:B *733:20 6.76116e-05
15 *1706:C *1706:D 6.57032e-05
16 *1707:B *1706:D 1.94879e-05
17 *1707:B *733:20 0.000141039
18 *1708:C *1708:D 5.33005e-05
19 *1728:B1 *1708:D 4.77415e-05
20 *1759:A_N *1613:A 8.33813e-05
21 *1759:A_N *733:16 0.000315152
22 *1771:A *2242:A 3.02892e-05
23 *1781:A_N *2242:A 2.05413e-05
24 *1785:B1 *1706:D 3.96483e-05
25 *1786:B1 *733:20 5.84171e-05
26 *1788:B1 *733:16 0
27 *1788:B1 *733:20 0.000168217
28 *1887:C1 *2242:A 0
29 *2063:RESET_B *733:16 1.24368e-05
30 *2086:CLK *2242:A 0
31 *2086:D *2242:A 7.8327e-05
32 *2089:D *733:20 0.000141863
33 *2089:RESET_B *733:8 0.000138106
34 *325:10 *2242:A 0
35 *329:12 *1706:D 0.000184615
36 *329:12 *733:20 0
37 *413:41 *2242:A 0.000157221
38 *413:41 *733:16 0.000138005
39 *545:10 *2242:A 0
40 *705:10 *733:16 1.5424e-05
*RES
1 *2089:Q *733:8 16.3893 
2 *733:8 *733:16 11.5 
3 *733:16 *733:20 11.9107 
4 *733:20 *1706:D 25.9023 
5 *733:20 *1708:D 14.7464 
6 *733:16 *1613:A 10.2464 
7 *733:8 *2242:A 20.6036 
*END

*D_NET *734 0.00608398
*CONN
*I *1621:A3 I *D sky130_fd_sc_hd__a31o_2
*I *1623:A2 I *D sky130_fd_sc_hd__a31o_2
*I *1615:A I *D sky130_fd_sc_hd__inv_2
*I *1622:B I *D sky130_fd_sc_hd__nand2_2
*I *1620:B I *D sky130_fd_sc_hd__nand2_2
*I *1841:A I *D sky130_fd_sc_hd__and2_2
*I *2090:Q O *D sky130_fd_sc_hd__dfrtp_2
*CAP
1 *1621:A3 0
2 *1623:A2 0
3 *1615:A 0.000166353
4 *1622:B 0.000182701
5 *1620:B 0.000123242
6 *1841:A 0.000114768
7 *2090:Q 0.000165736
8 *734:71 0.000318387
9 *734:63 0.000219036
10 *734:44 0.000640887
11 *734:12 0.000531053
12 *734:8 0.000849962
13 *1622:B *1621:B1 0.00027025
14 *734:63 *1621:B1 0.000126439
15 *734:71 *1621:B1 5.52302e-05
16 *734:71 *1623:B1 5.71472e-05
17 *1620:A *1620:B 7.83659e-05
18 *1621:A2 *1841:A 0
19 *1621:A2 *734:12 0.000230482
20 *1623:A1 *1622:B 4.58194e-05
21 *1623:A1 *734:44 6.05161e-06
22 *1623:A3 *1615:A 2.28499e-05
23 *1623:A3 *734:71 1.24368e-05
24 *1722:A3 *734:8 8.07951e-05
25 *1783:A2 *734:8 0.00029513
26 *1798:A2 *1620:B 0.000143375
27 *1798:B1 *734:44 0.000227532
28 *1841:B *1841:A 7.01785e-05
29 *1841:B *734:12 9.22103e-06
30 *2103:RESET_B *1622:B 0
31 *2223:A *1841:A 5.49544e-05
32 *13:14 *1620:B 8.61605e-05
33 *331:6 *734:71 1.02821e-05
34 *335:10 *1615:A 5.23057e-05
35 *335:10 *734:71 0.000247823
36 *337:12 *1622:B 0
37 *341:31 *1622:B 8.73652e-05
38 *535:6 *734:44 8.97655e-08
39 *535:13 *734:44 3.39146e-05
40 *535:15 *734:8 0.000110536
41 *535:15 *734:44 2.1527e-05
42 *708:10 *1620:B 5.80706e-06
43 *708:16 *1620:B 0.000122758
44 *708:16 *734:12 9.47613e-05
45 *727:40 *734:44 6.87574e-05
46 *727:40 *734:63 4.35048e-05
*RES
1 *2090:Q *734:8 18.7821 
2 *734:8 *734:12 8.73214 
3 *734:12 *1841:A 11.8 
4 *734:12 *1620:B 21.9607 
5 *734:8 *734:44 10.1786 
6 *734:44 *1622:B 22.7107 
7 *734:44 *734:63 10.6429 
8 *734:63 *734:71 4.39286 
9 *734:71 *1615:A 11.8 
10 *734:71 *1623:A2 9.3 
11 *734:63 *1621:A3 9.3 
*END

*D_NET *735 0.00512192
*CONN
*I *1626:B I *D sky130_fd_sc_hd__and3_2
*I *1788:A1 I *D sky130_fd_sc_hd__a221o_2
*I *1625:A I *D sky130_fd_sc_hd__nand2_2
*I *1758:B1 I *D sky130_fd_sc_hd__a22o_2
*I *1759:B I *D sky130_fd_sc_hd__nand3b_2
*I *1712:A2 I *D sky130_fd_sc_hd__a31o_2
*I *2091:Q O *D sky130_fd_sc_hd__dfrtp_2
*CAP
1 *1626:B 0.000210896
2 *1788:A1 0.000486046
3 *1625:A 0
4 *1758:B1 2.11774e-05
5 *1759:B 1.82471e-05
6 *1712:A2 0.00010574
7 *2091:Q 0.00050683
8 *735:63 0.000783607
9 *735:52 0.000265517
10 *735:14 0.000326275
11 *735:10 0.000551444
12 *1712:A2 *1712:A3 4.93196e-05
13 *1712:A2 *1759:C 2.84109e-05
14 *1759:B *1758:B2 1.02132e-05
15 *1759:B *1759:C 5.38444e-06
16 *735:14 *1758:B2 0.00031557
17 *735:14 *1759:C 2.2351e-05
18 *1760:A3 *1758:B1 2.89114e-05
19 *1760:A3 *735:10 0.00034251
20 *1760:A3 *735:14 1.21289e-05
21 *1788:A2 *1788:A1 9.99853e-05
22 *1788:B1 *1788:A1 3.08664e-05
23 *1788:B2 *1788:A1 2.84269e-05
24 *1788:C1 *1626:B 5.63468e-05
25 *1788:C1 *1788:A1 0.000217604
26 *1978:A *735:10 1.08936e-05
27 *1978:A *735:52 0
28 *2085:CLK *735:52 4.01768e-05
29 *2091:RESET_B *735:10 0.000104974
30 *535:33 *735:63 2.57655e-05
31 *544:34 *735:10 2.49484e-05
32 *555:80 *735:10 0
33 *555:80 *735:52 0.000125243
34 *555:80 *735:63 0.000142888
35 *681:50 *1788:A1 0.000123217
36 *681:50 *735:63 0
*RES
1 *2091:Q *735:10 25.4071 
2 *735:10 *735:14 4.25 
3 *735:14 *1712:A2 20.175 
4 *735:14 *1759:B 9.72857 
5 *735:10 *1758:B1 9.83571 
6 *2091:Q *735:52 16.8 
7 *735:52 *1625:A 13.8 
8 *735:52 *735:63 6.44643 
9 *735:63 *1788:A1 26.0857 
10 *735:63 *1626:B 11.8893 
*END

*D_NET *736 0.00205425
*CONN
*I *2228:A I *D sky130_fd_sc_hd__dlygate4sd3_1
*I *1626:C I *D sky130_fd_sc_hd__and3_2
*I *1625:B I *D sky130_fd_sc_hd__nand2_2
*I *2085:Q O *D sky130_fd_sc_hd__dfrtp_2
*CAP
1 *2228:A 0
2 *1626:C 0.00016899
3 *1625:B 6.97629e-05
4 *2085:Q 8.07349e-05
5 *736:12 0.000446744
6 *736:10 0.000288726
7 *1760:B1 *1626:C 0.000110638
8 *1769:B1 *736:10 0
9 *1781:A_N *736:12 5.33005e-05
10 *1788:A2 *1626:C 1.88189e-05
11 *1974:A *736:10 8.22793e-06
12 *2085:D *1625:B 4.58194e-05
13 *2085:RESET_B *1626:C 0
14 *445:18 *1625:B 0.000180202
15 *445:18 *736:12 0.000523662
16 *681:32 *736:10 5.86221e-05
*RES
1 *2085:Q *736:10 19.9429 
2 *736:10 *736:12 5.05357 
3 *736:12 *1625:B 11.0679 
4 *736:12 *1626:C 21.4607 
5 *736:10 *2228:A 9.3 
*END

*D_NET *737 0.00380033
*CONN
*I *2230:A I *D sky130_fd_sc_hd__dlygate4sd3_1
*I *1758:B2 I *D sky130_fd_sc_hd__a22o_2
*I *1759:C I *D sky130_fd_sc_hd__nand3b_2
*I *1712:A3 I *D sky130_fd_sc_hd__a31o_2
*I *2086:Q O *D sky130_fd_sc_hd__dfrtp_2
*CAP
1 *2230:A 0.000613964
2 *1758:B2 8.04293e-05
3 *1759:C 8.69014e-05
4 *1712:A3 0.000205045
5 *2086:Q 0.0008492
6 *737:23 0.000167331
7 *737:10 0.000440281
8 *1712:A1 *1712:A3 5.49489e-05
9 *1712:A2 *1712:A3 4.93196e-05
10 *1712:A2 *1759:C 2.84109e-05
11 *1759:A_N *1759:C 5.38444e-06
12 *1759:B *1758:B2 1.02132e-05
13 *1759:B *1759:C 5.38444e-06
14 *1760:A3 *1758:B2 0.000126026
15 *1978:A *2230:A 0.000119759
16 *2085:CLK *2230:A 0.000357555
17 *2086:RESET_B *2230:A 2.16315e-05
18 *2141:A *737:10 0.000148449
19 *413:31 *1712:A3 7.8195e-05
20 *545:29 *2230:A 1.39841e-05
21 *735:14 *1758:B2 0.00031557
22 *735:14 *1759:C 2.2351e-05
*RES
1 *2086:Q *737:10 18.4071 
2 *737:10 *1712:A3 17.4071 
3 *737:10 *737:23 4.5 
4 *737:23 *1759:C 11.0857 
5 *737:23 *1758:B2 12.7286 
6 *2086:Q *2230:A 36.85 
*END

*D_NET *738 0.00349707
*CONN
*I *1785:A1 I *D sky130_fd_sc_hd__o21a_2
*I *1707:A I *D sky130_fd_sc_hd__nor2_2
*I *1706:A_N I *D sky130_fd_sc_hd__and4b_2
*I *2064:Q O *D sky130_fd_sc_hd__dfrtp_2
*CAP
1 *1785:A1 2.84356e-05
2 *1707:A 0.000199438
3 *1706:A_N 0.000101681
4 *2064:Q 0.000277868
5 *738:29 0.000464292
6 *738:10 0.000615967
7 *1706:A_N *1708:A_N 3.15815e-05
8 *1785:A1 *1708:A_N 4.08637e-05
9 *738:29 *1708:A_N 5.33005e-05
10 *1707:B *1707:A 4.89442e-05
11 *1785:A2 *738:29 9.05283e-05
12 *1785:B1 *738:10 1.0609e-05
13 *1785:B1 *738:29 6.09521e-05
14 *1786:B1 *1707:A 5.52302e-05
15 *1787:A *738:29 5.33005e-05
16 *1787:B *1707:A 0.000110713
17 *1787:B *738:29 7.25712e-05
18 *1952:A *1707:A 6.27272e-06
19 *2155:A *738:10 0.000137639
20 *329:12 *1707:A 0.000196269
21 *402:8 *1707:A 0.00035238
22 *484:12 *738:10 6.04539e-05
23 *677:10 *738:10 0.000168638
24 *677:10 *738:29 6.93626e-06
25 *677:27 *738:29 6.48966e-05
26 *678:16 *1706:A_N 1.84865e-05
27 *705:12 *1707:A 0
28 *705:16 *738:29 3.17148e-05
29 *705:22 *738:29 5.72966e-05
30 *705:57 *1707:A 7.72798e-05
31 *724:12 *738:10 2.53112e-06
*RES
1 *2064:Q *738:10 19.4607 
2 *738:10 *1706:A_N 15.5679 
3 *738:10 *738:29 10.0893 
4 *738:29 *1707:A 24.6929 
5 *738:29 *1785:A1 9.83571 
*END

*D_NET *739 0.00255664
*CONN
*I *1709:A I *D sky130_fd_sc_hd__nor2_2
*I *1786:A1 I *D sky130_fd_sc_hd__o21a_2
*I *1708:A_N I *D sky130_fd_sc_hd__and4b_2
*I *2065:Q O *D sky130_fd_sc_hd__dfrtp_2
*CAP
1 *1709:A 7.52889e-05
2 *1786:A1 9.58301e-05
3 *1708:A_N 0.000463998
4 *2065:Q 0.000369964
5 *739:26 0.000265152
6 *1606:A *1786:A1 9.11048e-06
7 *1706:A_N *1708:A_N 3.15815e-05
8 *1706:B *739:26 5.33005e-05
9 *1706:D *1708:A_N 0.000112777
10 *1707:B *1786:A1 9.9129e-05
11 *1708:C *739:26 0.000135028
12 *1708:D *739:26 2.23592e-05
13 *1709:B *1709:A 3.62509e-05
14 *1728:B1 *1709:A 2.05823e-05
15 *1785:A1 *1708:A_N 4.08637e-05
16 *1785:A2 *1708:A_N 5.33005e-05
17 *1785:B1 *1708:A_N 0.000125731
18 *322:14 *1709:A 0.000141734
19 *322:14 *1786:A1 2.16394e-05
20 *322:14 *739:26 8.17274e-05
21 *329:12 *1708:A_N 5.41797e-06
22 *678:16 *1708:A_N 0.000223675
23 *733:20 *1786:A1 1.88933e-05
24 *738:29 *1708:A_N 5.33005e-05
*RES
1 *2065:Q *1708:A_N 34.0107 
2 *1708:A_N *739:26 11.4786 
3 *739:26 *1786:A1 20.2464 
4 *739:26 *1709:A 11.4964 
*END

*D_NET *740 0.00420591
*CONN
*I *1649:A I *D sky130_fd_sc_hd__and3_2
*I *1651:A I *D sky130_fd_sc_hd__nand4_2
*I *2192:A I *D sky130_fd_sc_hd__dlygate4sd3_1
*I *1803:A1 I *D sky130_fd_sc_hd__a21oi_2
*I *2105:Q O *D sky130_fd_sc_hd__dfrtp_2
*CAP
1 *1649:A 0.000283777
2 *1651:A 2.23854e-05
3 *2192:A 0.000236262
4 *1803:A1 0.000178159
5 *2105:Q 4.42452e-05
6 *740:44 0.000483186
7 *740:25 0.000484669
8 *740:8 0.000293787
9 *1649:A *1649:B 1.48543e-05
10 *1649:A *2221:A 0.000319313
11 *1649:A *747:25 3.34366e-05
12 *1803:A1 *1803:A2 0.000176175
13 *2192:A *1803:A2 6.05161e-06
14 *740:25 *1803:A2 0.000100726
15 *1803:B1 *1803:A1 9.17716e-05
16 *1804:B *1649:A 5.03772e-05
17 *1804:B *740:44 2.59355e-05
18 *2040:D *740:44 0.000164633
19 *2106:CLK *2192:A 5.62995e-05
20 *2106:D *2192:A 2.59355e-05
21 *2106:D *740:44 6.75007e-05
22 *2107:D *1649:A 5.52302e-05
23 *522:16 *2192:A 2.09826e-05
24 *522:16 *740:25 1.09232e-05
25 *522:16 *740:44 3.07294e-05
26 *535:296 *740:8 1.16695e-06
27 *535:313 *740:8 1.28637e-05
28 *548:58 *1803:A1 9.67754e-05
29 *549:40 *1649:A 8.68665e-05
30 *685:51 *740:44 1.21258e-05
31 *688:60 *1803:A1 7.62718e-05
32 *688:60 *740:25 0.000235332
33 *688:60 *740:44 0.000407159
*RES
1 *2105:Q *740:8 14.3357 
2 *740:8 *1803:A1 17.8714 
3 *740:8 *740:25 3.00893 
4 *740:25 *2192:A 18.0232 
5 *740:25 *740:44 10.5804 
6 *740:44 *1651:A 9.72857 
7 *740:44 *1649:A 24.4964 
*END

*D_NET *741 0.00292545
*CONN
*I *1654:A I *D sky130_fd_sc_hd__or3b_2
*I *2211:A I *D sky130_fd_sc_hd__dlygate4sd3_1
*I *1822:A1 I *D sky130_fd_sc_hd__a21oi_2
*I *1821:A I *D sky130_fd_sc_hd__and3_2
*I *2115:Q O *D sky130_fd_sc_hd__dfrtp_2
*CAP
1 *1654:A 0.000130404
2 *2211:A 0.000134841
3 *1822:A1 0.000137473
4 *1821:A 0.000219411
5 *2115:Q 0
6 *741:21 0.000272314
7 *741:19 0.000321045
8 *741:6 0.000410053
9 *1654:A *1654:B 8.91822e-05
10 *1654:A *755:19 4.46186e-06
11 *741:19 *1654:B 8.73444e-05
12 *741:19 *742:23 0.000110938
13 *1820:A *1822:A1 5.52302e-05
14 *1820:A *741:19 7.87801e-05
15 *1822:B1 *1822:A1 9.90367e-05
16 *1822:B1 *2211:A 0.000181803
17 *1823:A *1821:A 5.71472e-05
18 *1823:B *1821:A 0.000342158
19 *1823:B *741:19 3.2923e-05
20 *2116:D *1821:A 6.65817e-05
21 *2142:A *1654:A 0
22 *2190:A *1822:A1 1.24368e-05
23 *535:233 *1821:A 0
24 *535:285 *2211:A 0
25 *535:290 *1822:A1 6.62898e-05
26 *535:290 *2211:A 1.56e-05
27 *539:35 *1821:A 0
28 *696:53 *1654:A 0
*RES
1 *2115:Q *741:6 13.8 
2 *741:6 *1821:A 19.425 
3 *741:6 *741:19 5.28571 
4 *741:19 *741:21 4.5 
5 *741:21 *1822:A1 12.3179 
6 *741:21 *2211:A 11.9071 
7 *741:19 *1654:A 16.6571 
*END

*D_NET *742 0.00400905
*CONN
*I *1654:B I *D sky130_fd_sc_hd__or3b_2
*I *2189:A I *D sky130_fd_sc_hd__dlygate4sd3_1
*I *1821:B I *D sky130_fd_sc_hd__and3_2
*I *2116:Q O *D sky130_fd_sc_hd__dfrtp_2
*CAP
1 *1654:B 0.000175172
2 *2189:A 0.000180942
3 *1821:B 0.000317
4 *2116:Q 0.000391059
5 *742:23 0.000574226
6 *742:8 0.000926172
7 *1654:A *1654:B 8.91822e-05
8 *1822:B1 *1654:B 6.33061e-05
9 *1822:B1 *2189:A 4.71921e-05
10 *1823:A *1821:B 1.74352e-05
11 *1823:B *1821:B 7.83659e-05
12 *1823:B *742:23 0.000215088
13 *2115:D *2189:A 0.000310611
14 *2116:D *1821:B 0.00022459
15 *2116:RESET_B *742:8 3.92952e-05
16 *535:233 *742:23 0
17 *696:38 *2189:A 0.000161126
18 *696:53 *1654:B 0
19 *741:19 *1654:B 8.73444e-05
20 *741:19 *742:23 0.000110938
*RES
1 *2116:Q *742:8 18.4429 
2 *742:8 *1821:B 18.3714 
3 *742:8 *742:23 5.58929 
4 *742:23 *2189:A 18.8536 
5 *742:23 *1654:B 18.175 
*END

*D_NET *743 0.0033046
*CONN
*I *1825:B I *D sky130_fd_sc_hd__and3_2
*I *2218:A I *D sky130_fd_sc_hd__dlygate4sd3_1
*I *1655:B I *D sky130_fd_sc_hd__or4_2
*I *2251:A I *D sky130_fd_sc_hd__dlygate4sd3_1
*I *2117:Q O *D sky130_fd_sc_hd__dfrtp_2
*CAP
1 *1825:B 0.000359388
2 *2218:A 0
3 *1655:B 0.000159654
4 *2251:A 0.00025986
5 *2117:Q 0.000273148
6 *743:32 0.000510573
7 *743:21 0.000422837
8 *743:8 0.000645006
9 *1655:B *1655:D 0.000223675
10 *1825:B *1825:A 2.51343e-06
11 *2251:A *1655:C 0
12 *2251:A *2188:A 0
13 *743:32 *1825:A 0
14 *1824:B *2251:A 0
15 *1825:C *1825:B 0.000177025
16 *1825:C *743:32 8.75701e-05
17 *1826:A2 *2251:A 0
18 *2117:RESET_B *743:21 5.85816e-05
19 *2117:RESET_B *743:32 6.39889e-05
20 *366:10 *1825:B 0
21 *367:12 *1825:B 0
22 *466:8 *2251:A 2.89114e-05
23 *676:10 *1825:B 0
24 *685:41 *1825:B 0
25 *688:27 *2251:A 3.18676e-05
*RES
1 *2117:Q *743:8 16.8 
2 *743:8 *2251:A 18.4071 
3 *743:8 *743:21 2.55357 
4 *743:21 *1655:B 15.9786 
5 *743:21 *743:32 3.16071 
6 *743:32 *2218:A 13.8 
7 *743:32 *1825:B 20.6393 
*END

*D_NET *744 0.00237305
*CONN
*I *1825:A I *D sky130_fd_sc_hd__and3_2
*I *1655:A I *D sky130_fd_sc_hd__or4_2
*I *2188:A I *D sky130_fd_sc_hd__dlygate4sd3_1
*I *2118:Q O *D sky130_fd_sc_hd__dfrtp_2
*CAP
1 *1825:A 0.000632127
2 *1655:A 0
3 *2188:A 0.000125986
4 *2118:Q 0
5 *744:21 0.000861651
6 *744:6 0.00035551
7 *1825:A *1655:D 2.19811e-05
8 *2188:A *1655:C 4.62485e-05
9 *744:21 *1655:C 0.000101959
10 *1825:B *1825:A 2.51343e-06
11 *2007:A *2188:A 0.000108395
12 *2117:RESET_B *1825:A 0.000102296
13 *2251:A *2188:A 0
14 *366:10 *1825:A 0
15 *366:10 *744:21 6.05161e-06
16 *676:10 *1825:A 3.69047e-06
17 *687:18 *1825:A 4.64488e-06
18 *743:32 *1825:A 0
*RES
1 *2118:Q *744:6 13.8 
2 *744:6 *2188:A 16.9607 
3 *744:6 *744:21 9.41071 
4 *744:21 *1655:A 9.3 
5 *744:21 *1825:A 28.7643 
*END

*D_NET *745 0.00376309
*CONN
*I *1828:A I *D sky130_fd_sc_hd__nand2_2
*I *1655:C I *D sky130_fd_sc_hd__or4_2
*I *2202:A I *D sky130_fd_sc_hd__dlygate4sd3_1
*I *2119:Q O *D sky130_fd_sc_hd__dfrtp_2
*CAP
1 *1828:A 0.000437528
2 *1655:C 0.000934801
3 *2202:A 9.7803e-05
4 *2119:Q 0.000483976
5 *745:6 0.00107905
6 *1830:B *1828:A 0.000134461
7 *2117:D *1655:C 8.52549e-05
8 *2117:RESET_B *1655:C 1.78393e-05
9 *2118:CLK *1655:C 1.32418e-05
10 *2118:CLK *1828:A 0.000277467
11 *2118:CLK *745:6 3.47702e-06
12 *2118:RESET_B *1655:C 1.25672e-06
13 *2119:CLK *1828:A 3.49456e-06
14 *2119:D *1828:A 2.59355e-05
15 *2188:A *1655:C 4.62485e-05
16 *2251:A *1655:C 0
17 *548:36 *1828:A 1.92905e-05
18 *744:21 *1655:C 0.000101959
*RES
1 *2119:Q *745:6 9.83571 
2 *745:6 *2202:A 19.9429 
3 *745:6 *1655:C 31.8179 
4 *2119:Q *1828:A 28.1893 
*END

*D_NET *746 0.00156782
*CONN
*I *1655:D I *D sky130_fd_sc_hd__or4_2
*I *2176:A I *D sky130_fd_sc_hd__dlygate4sd3_1
*I *2120:Q O *D sky130_fd_sc_hd__dfrtp_2
*CAP
1 *1655:D 0.000433528
2 *2176:A 2.22847e-05
3 *2120:Q 0.000205269
4 *746:12 0.000661081
5 *1655:B *1655:D 0.000223675
6 *1825:A *1655:D 2.19811e-05
*RES
1 *2120:Q *746:12 21.4071 
2 *746:12 *2176:A 9.72857 
3 *746:12 *1655:D 16.7286 
*END

*D_NET *747 0.0041662
*CONN
*I *1649:B I *D sky130_fd_sc_hd__and3_2
*I *2221:A I *D sky130_fd_sc_hd__dlygate4sd3_1
*I *1651:B I *D sky130_fd_sc_hd__nand4_2
*I *1803:A2 I *D sky130_fd_sc_hd__a21oi_2
*I *2106:Q O *D sky130_fd_sc_hd__dfrtp_2
*CAP
1 *1649:B 0.000148147
2 *2221:A 0.00028866
3 *1651:B 0
4 *1803:A2 0.000565487
5 *2106:Q 0.000277594
6 *747:25 0.000383827
7 *747:6 0.0010864
8 *1649:B *1649:C 3.466e-06
9 *2221:A *1651:C 0.000170654
10 *747:25 *1651:C 1.02504e-05
11 *1649:A *1649:B 1.48543e-05
12 *1649:A *2221:A 0.000319313
13 *1649:A *747:25 3.34366e-05
14 *1803:A1 *1803:A2 0.000176175
15 *1806:B *747:25 0
16 *2106:RESET_B *747:6 3.24395e-05
17 *2107:D *747:25 0.000107503
18 *2120:D *1803:A2 4.27842e-06
19 *2192:A *1803:A2 6.05161e-06
20 *522:16 *1803:A2 0.00020042
21 *535:313 *1803:A2 2.2997e-05
22 *548:58 *1803:A2 9.99641e-05
23 *549:12 *747:25 8.08376e-05
24 *549:40 *2221:A 9.11365e-06
25 *549:40 *747:25 4.97121e-06
26 *687:36 *747:25 0
27 *688:60 *1803:A2 1.86382e-05
28 *740:25 *1803:A2 0.000100726
*RES
1 *2106:Q *747:6 12.7107 
2 *747:6 *1803:A2 27.8536 
3 *747:6 *747:25 10.3929 
4 *747:25 *1651:B 13.8 
5 *747:25 *2221:A 17.8179 
6 *2221:A *1649:B 20.6893 
*END

*D_NET *748 0.00226874
*CONN
*I *1649:C I *D sky130_fd_sc_hd__and3_2
*I *1651:D I *D sky130_fd_sc_hd__nand4_2
*I *2219:A I *D sky130_fd_sc_hd__dlygate4sd3_1
*I *2107:Q O *D sky130_fd_sc_hd__dfrtp_2
*CAP
1 *1649:C 0.000236853
2 *1651:D 0.000112987
3 *2219:A 0.000149229
4 *2107:Q 5.13152e-05
5 *748:21 0.000481701
6 *748:8 0.000332405
7 *1649:B *1649:C 3.466e-06
8 *1804:B *1651:D 5.99152e-05
9 *2106:RESET_B *2219:A 0.000185124
10 *2107:D *1651:D 9.99853e-05
11 *2107:RESET_B *1651:D 2.59355e-05
12 *2107:RESET_B *748:21 0.000172815
13 *685:51 *1651:D 9.49395e-05
14 *687:36 *1649:C 0.000159086
15 *687:36 *2219:A 6.14594e-05
16 *687:36 *748:21 4.15281e-05
*RES
1 *2107:Q *748:8 14.3357 
2 *748:8 *2219:A 17.2107 
3 *748:8 *748:21 3.16071 
4 *748:21 *1651:D 16.8179 
5 *748:21 *1649:C 17.8179 
*END

*D_NET *749 0.00387631
*CONN
*I *1650:A I *D sky130_fd_sc_hd__and2_2
*I *2204:A I *D sky130_fd_sc_hd__dlygate4sd3_1
*I *1651:C I *D sky130_fd_sc_hd__nand4_2
*I *2108:Q O *D sky130_fd_sc_hd__dfrtp_2
*CAP
1 *1650:A 0.000247995
2 *2204:A 0.000209005
3 *1651:C 0.000296672
4 *2108:Q 0.000311171
5 *749:21 0.000594821
6 *749:8 0.000745665
7 *1650:A *2121:D 3.34803e-05
8 *749:21 *2121:D 5.5782e-05
9 *1650:B *1650:A 0.000300153
10 *1804:B *1651:C 9.87672e-05
11 *1805:A *2204:A 5.28427e-05
12 *1806:B *1651:C 0.000137138
13 *1931:C *1650:A 0.000178176
14 *2107:D *1651:C 5.57989e-05
15 *2108:RESET_B *749:8 0.000183713
16 *2109:CLK *749:8 8.43535e-06
17 *2109:D *1651:C 2.34204e-05
18 *2109:D *749:8 5.33005e-05
19 *2109:D *749:21 6.8646e-06
20 *2121:SET_B *1650:A 1.03761e-05
21 *2221:A *1651:C 0.000170654
22 *360:21 *1651:C 0
23 *360:21 *2204:A 9.18273e-05
24 *360:21 *749:21 0
25 *549:40 *1651:C 0
26 *549:40 *749:21 0
27 *549:55 *1650:A 0
28 *549:55 *749:21 0
29 *747:25 *1651:C 1.02504e-05
*RES
1 *2108:Q *749:8 17.6214 
2 *749:8 *1651:C 21.2464 
3 *749:8 *749:21 2.85714 
4 *749:21 *2204:A 17.6393 
5 *749:21 *1650:A 19.7464 
*END

*D_NET *750 0.00334113
*CONN
*I *1807:A1 I *D sky130_fd_sc_hd__a21oi_2
*I *1808:B I *D sky130_fd_sc_hd__and3_2
*I *1835:A2 I *D sky130_fd_sc_hd__a311o_2
*I *1834:B I *D sky130_fd_sc_hd__nor3_2
*I *1652:B I *D sky130_fd_sc_hd__nand2b_2
*I *2247:A I *D sky130_fd_sc_hd__dlygate4sd3_1
*I *2109:Q O *D sky130_fd_sc_hd__dfrtp_2
*CAP
1 *1807:A1 0
2 *1808:B 8.13638e-05
3 *1835:A2 0
4 *1834:B 8.71283e-05
5 *1652:B 9.40292e-05
6 *2247:A 0
7 *2109:Q 0.000213802
8 *750:35 0.00023697
9 *750:31 0.000217559
10 *750:23 0.000302624
11 *750:19 0.000141261
12 *750:12 0.00029555
13 *1652:B *1652:A_N 4.43525e-05
14 *1652:B *1834:C 9.25014e-06
15 *1652:B *752:26 5.94644e-05
16 *1834:B *1834:A 6.05161e-06
17 *1834:B *1834:C 5.49489e-05
18 *1834:B *751:16 3.66228e-05
19 *750:19 *1807:B1 0.000185408
20 *750:23 *1807:B1 4.14279e-05
21 *750:31 *751:14 7.15591e-05
22 *750:35 *1835:A1 3.57366e-05
23 *750:35 *1835:A3 5.33005e-05
24 *750:35 *751:16 0.00022459
25 *1659:B *750:31 0.000241191
26 *1659:C *750:31 0.000197262
27 *1808:C *1808:B 0.00014183
28 *1808:C *750:23 1.33343e-05
29 *1835:C1 *1834:B 1.33343e-05
30 *1835:C1 *750:35 8.55657e-05
31 *459:43 *1808:B 3.99614e-06
32 *687:47 *750:12 0.000151613
*RES
1 *2109:Q *750:12 22.425 
2 *750:12 *2247:A 9.3 
3 *750:12 *750:19 2.17857 
4 *750:19 *750:23 1.375 
5 *750:23 *750:31 13.8036 
6 *750:31 *750:35 2.60714 
7 *750:35 *1652:B 20.55 
8 *750:35 *1834:B 11.0857 
9 *750:31 *1835:A2 9.3 
10 *750:23 *1808:B 11.3893 
11 *750:19 *1807:A1 9.3 
*END

*D_NET *751 0.003882
*CONN
*I *1808:A I *D sky130_fd_sc_hd__and3_2
*I *1807:B1 I *D sky130_fd_sc_hd__a21oi_2
*I *1835:A1 I *D sky130_fd_sc_hd__a311o_2
*I *1652:A_N I *D sky130_fd_sc_hd__nand2b_2
*I *1834:A I *D sky130_fd_sc_hd__nor3_2
*I *2110:Q O *D sky130_fd_sc_hd__dfrtp_2
*CAP
1 *1808:A 0
2 *1807:B1 0.000187172
3 *1835:A1 2.17867e-05
4 *1652:A_N 0.000115282
5 *1834:A 9.74213e-05
6 *2110:Q 0.000123245
7 *751:49 0.000214918
8 *751:16 0.000324368
9 *751:14 0.000393098
10 *751:8 0.000410637
11 *751:16 *1834:C 5.68722e-05
12 *1652:B *1652:A_N 4.43525e-05
13 *1659:C *751:14 0.000246057
14 *1808:C *1807:B1 5.50052e-05
15 *1808:C *751:49 4.17702e-05
16 *1809:A *751:8 6.94441e-06
17 *1809:A *751:14 6.00572e-05
18 *1811:B *751:8 8.40601e-05
19 *1834:B *1834:A 6.05161e-06
20 *1834:B *751:16 3.66228e-05
21 *1835:B1 *1835:A1 3.57366e-05
22 *1835:B1 *751:14 1.24368e-05
23 *1835:C1 *751:14 1.21258e-05
24 *1835:C1 *751:16 1.39726e-05
25 *1836:B *751:14 0.000133477
26 *361:12 *751:8 0.000139893
27 *361:12 *751:14 1.46689e-05
28 *362:26 *1834:A 8.68236e-05
29 *362:26 *751:16 0.000297433
30 *459:10 *751:8 5.09908e-05
31 *750:19 *1807:B1 0.000185408
32 *750:23 *1807:B1 4.14279e-05
33 *750:31 *751:14 7.15591e-05
34 *750:35 *1835:A1 3.57366e-05
35 *750:35 *751:16 0.00022459
*RES
1 *2110:Q *751:8 17.5679 
2 *751:8 *751:14 10.9286 
3 *751:14 *751:16 3.82143 
4 *751:16 *1834:A 11.5143 
5 *751:16 *1652:A_N 20.55 
6 *751:14 *1835:A1 10.0321 
7 *751:8 *751:49 5.03571 
8 *751:49 *1807:B1 22.0321 
9 *751:49 *1808:A 9.3 
*END

*D_NET *752 0.00906659
*CONN
*I *1658:B I *D sky130_fd_sc_hd__or3b_2
*I *1814:A2 I *D sky130_fd_sc_hd__a31oi_2
*I *1811:A I *D sky130_fd_sc_hd__or2_2
*I *1810:A I *D sky130_fd_sc_hd__nand2_2
*I *1815:B I *D sky130_fd_sc_hd__and4_2
*I *1653:C I *D sky130_fd_sc_hd__or4b_2
*I *1834:C I *D sky130_fd_sc_hd__nor3_2
*I *1835:A3 I *D sky130_fd_sc_hd__a311o_2
*I *2111:Q O *D sky130_fd_sc_hd__dfrtp_2
*CAP
1 *1658:B 0.000386844
2 *1814:A2 0
3 *1811:A 8.96341e-05
4 *1810:A 0.000159368
5 *1815:B 0
6 *1653:C 0
7 *1834:C 0.000219641
8 *1835:A3 1.69531e-05
9 *2111:Q 0.000446091
10 *752:84 0.000686655
11 *752:26 0.000362083
12 *752:20 0.000430662
13 *752:16 0.000649979
14 *752:12 0.000586933
15 *752:10 0.00054894
16 *752:6 0.00112245
17 *1658:B *1814:A1 5.80706e-06
18 *752:16 *753:32 0.00034321
19 *752:16 *754:48 0
20 *752:20 *1653:A 9.73636e-05
21 *752:20 *1653:D_N 0.000313241
22 *752:84 *1814:A1 5.34565e-05
23 *1652:B *1834:C 9.25014e-06
24 *1652:B *752:26 5.94644e-05
25 *1656:A *752:26 0.000148903
26 *1658:A *1658:B 0.000186669
27 *1659:B *1834:C 2.04825e-05
28 *1659:B *752:26 6.73939e-05
29 *1809:A *752:16 0
30 *1812:B *1811:A 5.107e-05
31 *1812:B *752:12 3.8206e-05
32 *1813:A *1810:A 0.000140243
33 *1813:A *752:12 3.6236e-05
34 *1813:A *752:16 8.67814e-06
35 *1815:D *1658:B 0
36 *1815:D *752:84 4.1331e-06
37 *1816:B *1658:B 0.000132496
38 *1834:B *1834:C 5.49489e-05
39 *1835:C1 *1835:A3 5.33005e-05
40 *2111:CLK *752:10 3.06123e-05
41 *2111:CLK *752:12 0.000126416
42 *2111:CLK *752:16 0.000256246
43 *2112:D *752:10 3.50949e-06
44 *2112:D *752:84 0
45 *2112:RESET_B *752:84 0.000262888
46 *2113:D *1658:B 0.000104974
47 *363:6 *752:20 2.07491e-05
48 *363:6 *752:26 1.58163e-05
49 *365:12 *1658:B 3.34295e-05
50 *366:23 *752:16 3.25078e-05
51 *459:43 *1810:A 2.83629e-05
52 *459:58 *752:84 0.000140311
53 *463:8 *1658:B 0
54 *540:54 *752:16 0.000369811
55 *750:35 *1835:A3 5.33005e-05
56 *751:16 *1834:C 5.68722e-05
*RES
1 *2111:Q *752:6 14.3536 
2 *752:6 *752:10 8.73214 
3 *752:10 *752:12 2.55357 
4 *752:12 *752:16 13.125 
5 *752:16 *752:20 5.89286 
6 *752:20 *752:26 7.89286 
7 *752:26 *1835:A3 14.3357 
8 *752:26 *1834:C 16.9607 
9 *752:20 *1653:C 9.3 
10 *752:16 *1815:B 9.3 
11 *752:12 *1810:A 16.3 
12 *752:10 *1811:A 15.7464 
13 *752:6 *752:84 12.8214 
14 *752:84 *1814:A2 13.8 
15 *752:84 *1658:B 21.6929 
*END

*D_NET *753 0.00540446
*CONN
*I *2229:A I *D sky130_fd_sc_hd__dlygate4sd3_1
*I *1814:A1 I *D sky130_fd_sc_hd__a31oi_2
*I *1815:A I *D sky130_fd_sc_hd__and4_2
*I *1653:A I *D sky130_fd_sc_hd__or4b_2
*I *1659:A I *D sky130_fd_sc_hd__or4_2
*I *1836:D_N I *D sky130_fd_sc_hd__or4b_2
*I *2112:Q O *D sky130_fd_sc_hd__dfrtp_2
*CAP
1 *2229:A 0
2 *1814:A1 0.000249396
3 *1815:A 0
4 *1653:A 0.000206107
5 *1659:A 0
6 *1836:D_N 0.000155292
7 *2112:Q 0
8 *753:56 0.000406267
9 *753:32 0.000377752
10 *753:12 0.000210754
11 *753:10 0.00102207
12 *753:4 0.000951829
13 *1653:A *1653:D_N 0.000228558
14 *1814:A1 *2245:A 5.52238e-05
15 *1814:A1 *754:23 1.08359e-05
16 *753:32 *1653:D_N 2.28598e-05
17 *1658:B *1814:A1 5.80706e-06
18 *1659:C *1836:D_N 0.00022459
19 *1659:D *753:32 0
20 *1660:B *1814:A1 0
21 *1660:B *753:10 0.000108024
22 *1660:B *753:12 6.05161e-06
23 *1809:A *753:32 0
24 *1816:B *1814:A1 9.25014e-06
25 *2001:A *753:56 0.00010096
26 *2112:RESET_B *1814:A1 0.000227014
27 *363:6 *1653:A 7.43578e-06
28 *366:23 *753:32 0.00015134
29 *673:10 *1814:A1 0
30 *673:21 *1814:A1 0
31 *673:21 *753:56 4.35048e-05
32 *700:84 *753:56 0.000129515
33 *752:16 *753:32 0.00034321
34 *752:20 *1653:A 9.73636e-05
35 *752:84 *1814:A1 5.34565e-05
*RES
1 *2112:Q *753:4 9.3 
2 *753:4 *753:10 9.91071 
3 *753:10 *753:12 0.946429 
4 *753:12 *1836:D_N 12.3 
5 *753:12 *1659:A 9.3 
6 *753:10 *753:32 13.9107 
7 *753:32 *1653:A 13.9786 
8 *753:32 *1815:A 9.3 
9 *753:4 *753:56 13.2321 
10 *753:56 *1814:A1 24.3536 
11 *753:56 *2229:A 9.3 
*END

*D_NET *754 0.00409902
*CONN
*I *1815:C I *D sky130_fd_sc_hd__and4_2
*I *1653:D_N I *D sky130_fd_sc_hd__or4b_2
*I *1814:B1 I *D sky130_fd_sc_hd__a31oi_2
*I *2245:A I *D sky130_fd_sc_hd__dlygate4sd3_1
*I *1658:C_N I *D sky130_fd_sc_hd__or3b_2
*I *2113:Q O *D sky130_fd_sc_hd__dfrtp_2
*CAP
1 *1815:C 2.23854e-05
2 *1653:D_N 8.81663e-05
3 *1814:B1 0
4 *2245:A 0.000384076
5 *1658:C_N 0.000215044
6 *2113:Q 0.000349865
7 *754:48 0.000221719
8 *754:23 0.000329256
9 *754:8 0.000621255
10 *1653:A *1653:D_N 0.000228558
11 *1658:A *1658:C_N 5.62995e-05
12 *1660:A *1658:C_N 0.000104561
13 *1660:A *754:23 5.35423e-05
14 *1814:A1 *2245:A 5.52238e-05
15 *1814:A1 *754:23 1.08359e-05
16 *1815:D *754:48 0.000173653
17 *1816:B *1658:C_N 0.000250208
18 *1816:B *754:23 0.000119618
19 *540:48 *754:8 0.00025664
20 *540:54 *1653:D_N 1.33343e-05
21 *540:54 *754:48 0.000208678
22 *752:16 *754:48 0
23 *752:20 *1653:D_N 0.000313241
24 *753:32 *1653:D_N 2.28598e-05
*RES
1 *2113:Q *754:8 18.4429 
2 *754:8 *1658:C_N 19.55 
3 *754:8 *754:23 6.44643 
4 *754:23 *2245:A 13.5321 
5 *754:23 *1814:B1 9.3 
6 *2245:A *754:48 22.2107 
7 *754:48 *1653:D_N 12.7107 
8 *754:48 *1815:C 9.72857 
*END

*D_NET *755 0.0011827
*CONN
*I *1817:A I *D sky130_fd_sc_hd__and2_2
*I *2194:A I *D sky130_fd_sc_hd__dlygate4sd3_1
*I *1654:C_N I *D sky130_fd_sc_hd__or3b_2
*I *2114:Q O *D sky130_fd_sc_hd__dfrtp_2
*CAP
1 *1817:A 1.99167e-05
2 *2194:A 0
3 *1654:C_N 0
4 *2114:Q 9.73478e-05
5 *755:19 0.000189941
6 *755:6 0.000267372
7 *1654:A *755:19 4.46186e-06
8 *1817:B *1817:A 9.90431e-05
9 *2393:A *755:6 0.000226513
10 *2393:A *755:19 9.90367e-05
11 *365:12 *755:19 0.000125724
12 *464:10 *1817:A 5.33433e-05
13 *464:10 *755:19 0
14 *674:12 *755:19 0
*RES
1 *2114:Q *755:6 11.4786 
2 *755:6 *1654:C_N 9.3 
3 *755:6 *755:19 12.5 
4 *755:19 *2194:A 9.3 
5 *755:19 *1817:A 10.2464 
*END

*D_NET *756 0.00755216
*CONN
*I *1704:A I *D sky130_fd_sc_hd__or2_2
*I *1689:A I *D sky130_fd_sc_hd__nand2_2
*I *1690:C I *D sky130_fd_sc_hd__and4_2
*I *1702:A1 I *D sky130_fd_sc_hd__a21oi_2
*I *1684:B I *D sky130_fd_sc_hd__and3_2
*I *1677:D I *D sky130_fd_sc_hd__or4_2
*I *1647:C I *D sky130_fd_sc_hd__and3_2
*I *2066:Q O *D sky130_fd_sc_hd__dfrtp_2
*CAP
1 *1704:A 0.000100167
2 *1689:A 0.000302089
3 *1690:C 0.000126042
4 *1702:A1 0.00029151
5 *1684:B 0.000324316
6 *1677:D 0.000123331
7 *1647:C 0
8 *2066:Q 0.000713502
9 *756:74 0.000923231
10 *756:18 0.000432688
11 *756:12 0.000791482
12 *756:10 0.000567204
13 *756:6 0.000436453
14 *1677:D *1647:A 5.33005e-05
15 *1684:B *1684:A 9.99644e-06
16 *1690:C *1690:B 1.74352e-05
17 *756:10 *763:12 0
18 *756:12 *764:27 0
19 *756:18 *1647:A 1.76135e-05
20 *756:18 *1677:C 5.7616e-05
21 *756:18 *763:22 0.000280028
22 *756:18 *764:37 0
23 *1648:C *1677:D 4.84999e-05
24 *1648:C *756:18 2.89114e-05
25 *1661:B *1684:B 9.83388e-05
26 *1676:C *756:18 3.88035e-05
27 *1685:C *756:12 0
28 *1690:D *1690:C 0.000180178
29 *1690:D *756:6 0.000137505
30 *1690:D *756:74 0.000159973
31 *1701:B *756:10 0
32 *1702:B1 *1702:A1 0.000185118
33 *1703:B *1702:A1 9.77414e-05
34 *1705:A *1702:A1 0.000116955
35 *1705:C *1704:A 3.18309e-05
36 *2066:CLK *1689:A 2.79421e-05
37 *2066:D *1689:A 5.50052e-05
38 *2068:D *756:10 0
39 *385:29 *756:12 6.44845e-05
40 *385:29 *756:18 0.000207938
41 *385:48 *1702:A1 0.000140933
42 *385:48 *756:10 6.8646e-06
43 *385:48 *756:12 1.65558e-05
44 *387:10 *1684:B 1.56e-05
45 *387:14 *1702:A1 0.000266479
46 *673:34 *1704:A 5.49995e-05
47 *700:84 *1689:A 3.49456e-06
*RES
1 *2066:Q *756:6 11.8893 
2 *756:6 *756:10 6.44643 
3 *756:10 *756:12 3.16071 
4 *756:12 *756:18 12.4464 
5 *756:18 *1647:C 9.3 
6 *756:18 *1677:D 11.0857 
7 *756:12 *1684:B 17.6214 
8 *756:10 *1702:A1 21.4786 
9 *756:6 *1690:C 12.2286 
10 *2066:Q *756:74 15.5857 
11 *756:74 *1689:A 13.0321 
12 *756:74 *1704:A 20.175 
*END

*D_NET *757 0.00515932
*CONN
*I *1838:B I *D sky130_fd_sc_hd__or4bb_2
*I *1662:A I *D sky130_fd_sc_hd__and3_2
*I *1673:A_N I *D sky130_fd_sc_hd__and2b_2
*I *1676:B I *D sky130_fd_sc_hd__or4_2
*I *2076:Q O *D sky130_fd_sc_hd__dfrtp_2
*CAP
1 *1838:B 0
2 *1662:A 0
3 *1673:A_N 0.000551357
4 *1676:B 2.23854e-05
5 *2076:Q 0.000270369
6 *757:39 0.000935939
7 *757:24 0.000655862
8 *757:14 0.000519262
9 *757:14 *1838:A 1.21258e-05
10 *757:14 *1838:D_N 1.34741e-05
11 *757:14 *758:22 0.000127977
12 *757:24 *1675:A 3.48139e-05
13 *757:24 *1676:A 2.59355e-05
14 *757:24 *1838:A 3.69047e-06
15 *757:24 *1838:D_N 3.67142e-05
16 *757:24 *769:35 0.000125879
17 *757:39 *771:16 0.000307343
18 *757:39 *771:20 5.23287e-05
19 *1662:C *757:39 5.52302e-05
20 *1679:B *757:14 0.000217218
21 *1679:B *757:24 3.34672e-05
22 *1680:A *1673:A_N 5.49544e-05
23 *1680:A *757:39 0.000340857
24 *1680:B *757:24 5.74499e-06
25 *1681:A2 *1673:A_N 0
26 *1681:B1 *1673:A_N 0
27 *1840:C *757:14 0.000125111
28 *1964:A *1673:A_N 9.22015e-05
29 *2075:CLK *757:24 3.80079e-05
30 *2075:CLK *757:39 9.92409e-05
31 *2115:CLK *1673:A_N 0.000186765
32 *2117:CLK *1673:A_N 0.000107276
33 *540:21 *1673:A_N 7.60694e-05
34 *696:61 *1673:A_N 3.17163e-05
*RES
1 *2076:Q *757:14 24.3536 
2 *757:14 *757:24 13.4643 
3 *757:24 *1676:B 9.72857 
4 *757:24 *757:39 8.80357 
5 *757:39 *1673:A_N 30.0857 
6 *757:39 *1662:A 9.3 
7 *757:14 *1838:B 9.3 
*END

*D_NET *758 0.00675527
*CONN
*I *2201:A I *D sky130_fd_sc_hd__dlygate4sd3_1
*I *1663:A I *D sky130_fd_sc_hd__and2_2
*I *1676:A I *D sky130_fd_sc_hd__or4_2
*I *1838:A I *D sky130_fd_sc_hd__or4bb_2
*I *2077:Q O *D sky130_fd_sc_hd__dfrtp_2
*CAP
1 *2201:A 3.34967e-05
2 *1663:A 3.26791e-05
3 *1676:A 0.00017046
4 *1838:A 6.73369e-05
5 *2077:Q 0.000264257
6 *758:46 0.000101334
7 *758:22 0.00126362
8 *758:14 0.00132524
9 *758:22 *759:21 0.000123809
10 *1663:B *1663:A 9.87617e-05
11 *1664:C *758:22 3.17148e-05
12 *1669:A2 *758:22 0.000217892
13 *1672:B *758:14 0.000154762
14 *1672:B *758:46 4.56437e-05
15 *1679:A *1676:A 0.000228674
16 *1679:A *758:22 0.000169167
17 *1680:B *1838:A 0.000135028
18 *1840:A *1676:A 0
19 *1840:C *1676:A 0.000213898
20 *1840:C *758:22 5.32956e-05
21 *2075:CLK *1676:A 0.000310292
22 *2165:A *758:22 2.6269e-05
23 *374:6 *1663:A 0.000139625
24 *374:6 *2201:A 0.000172687
25 *374:6 *758:22 0.000530191
26 *374:19 *758:22 0.000516926
27 *539:10 *758:14 0
28 *696:20 *1663:A 1.98839e-05
29 *696:20 *2201:A 9.94037e-05
30 *701:92 *758:14 3.92032e-05
31 *757:14 *1838:A 1.21258e-05
32 *757:14 *758:22 0.000127977
33 *757:24 *1676:A 2.59355e-05
34 *757:24 *1838:A 3.69047e-06
*RES
1 *2077:Q *758:14 18.8714 
2 *758:14 *758:22 27.4107 
3 *758:22 *1838:A 15.1571 
4 *758:22 *1676:A 19.6571 
5 *758:14 *758:46 5.23214 
6 *758:46 *1663:A 10.6571 
7 *758:46 *2201:A 11.0679 
*END

*D_NET *759 0.00218086
*CONN
*I *1664:B I *D sky130_fd_sc_hd__and3_2
*I *1678:D I *D sky130_fd_sc_hd__or4_2
*I *1669:A1 I *D sky130_fd_sc_hd__a21oi_2
*I *2212:A I *D sky130_fd_sc_hd__dlygate4sd3_1
*I *2078:Q O *D sky130_fd_sc_hd__dfrtp_2
*CAP
1 *1664:B 4.17463e-05
2 *1678:D 0.000131885
3 *1669:A1 3.27149e-05
4 *2212:A 0
5 *2078:Q 0.000117669
6 *759:21 0.000332516
7 *759:10 0.000343234
8 *759:6 0.000334733
9 *759:10 *1664:A 0.000198698
10 *759:10 *760:27 0
11 *759:21 *1678:C 0
12 *759:21 *760:27 0
13 *1664:C *1664:B 5.19842e-06
14 *1664:C *759:6 1.57931e-05
15 *1664:C *759:10 4.29179e-05
16 *1664:C *759:21 4.8813e-05
17 *1669:B1 *1678:D 9.84729e-05
18 *1669:B1 *759:21 0.000312664
19 *1670:B *759:10 0
20 *2079:RESET_B *759:10 0
21 *758:22 *759:21 0.000123809
*RES
1 *2078:Q *759:6 10.6571 
2 *759:6 *759:10 8.57143 
3 *759:10 *2212:A 13.8 
4 *759:10 *759:21 9.48214 
5 *759:21 *1669:A1 9.83571 
6 *759:21 *1678:D 11.4964 
7 *759:6 *1664:B 9.83571 
*END

*D_NET *760 0.00230947
*CONN
*I *1678:C I *D sky130_fd_sc_hd__or4_2
*I *2186:A I *D sky130_fd_sc_hd__dlygate4sd3_1
*I *1664:A I *D sky130_fd_sc_hd__and3_2
*I *2079:Q O *D sky130_fd_sc_hd__dfrtp_2
*CAP
1 *1678:C 0.000249594
2 *2186:A 6.71205e-05
3 *1664:A 0.000109534
4 *2079:Q 7.76826e-05
5 *760:27 0.000627268
6 *760:6 0.00049777
7 *1678:C *1678:A 1.02301e-05
8 *1664:C *1664:A 0.000159687
9 *1669:B1 *1678:C 0
10 *1670:B *1678:C 6.75007e-05
11 *1670:B *760:27 7.79748e-05
12 *2079:RESET_B *1664:A 0
13 *2187:A *1678:C 0
14 *383:12 *1678:C 2.97389e-05
15 *535:245 *1678:C 5.94447e-06
16 *541:12 *1678:C 0
17 *701:92 *760:6 3.32631e-05
18 *701:92 *760:27 9.74668e-05
19 *759:10 *1664:A 0.000198698
20 *759:10 *760:27 0
21 *759:21 *1678:C 0
22 *759:21 *760:27 0
*RES
1 *2079:Q *760:6 10.2464 
2 *760:6 *1664:A 22.0679 
3 *760:6 *760:27 9.69643 
4 *760:27 *2186:A 14.7464 
5 *760:27 *1678:C 18.6214 
*END

*D_NET *761 0.00465452
*CONN
*I *1678:B I *D sky130_fd_sc_hd__or4_2
*I *1665:A I *D sky130_fd_sc_hd__nand2_2
*I *1667:A I *D sky130_fd_sc_hd__or2_2
*I *2080:Q O *D sky130_fd_sc_hd__dfrtp_2
*CAP
1 *1678:B 0.000763703
2 *1665:A 0
3 *1667:A 0.00039952
4 *2080:Q 0.000200686
5 *761:14 0.000694098
6 *761:8 0.00125897
7 *1678:B *1678:A 3.36307e-05
8 *1665:B *1667:A 0.000144773
9 *1666:A *761:14 9.92409e-05
10 *2080:RESET_B *1678:B 7.58841e-05
11 *2080:RESET_B *761:14 5.74242e-05
12 *2129:A *1678:B 2.83425e-05
13 *2166:A *1667:A 4.58976e-05
14 *375:17 *1667:A 3.71854e-05
15 *376:12 *761:14 5.26091e-05
16 *383:12 *1678:B 7.4057e-06
17 *541:8 *1678:B 0.000204871
18 *698:10 *1667:A 4.46186e-06
19 *699:10 *1667:A 0
20 *699:10 *761:14 1.76135e-05
21 *699:23 *1678:B 2.2927e-05
22 *699:23 *761:14 0.000182721
23 *699:32 *1678:B 3.8206e-05
24 *700:10 *1667:A 5.66157e-05
25 *700:21 *1667:A 0.000227736
26 *700:21 *761:14 0
27 *700:46 *761:14 0
*RES
1 *2080:Q *761:8 15.9786 
2 *761:8 *761:14 11.8571 
3 *761:14 *1667:A 25.6036 
4 *761:14 *1665:A 9.3 
5 *761:8 *1678:B 24.2821 
*END

*D_NET *762 0.00403019
*CONN
*I *1678:A I *D sky130_fd_sc_hd__or4_2
*I *2181:A I *D sky130_fd_sc_hd__dlygate4sd3_1
*I *2081:Q O *D sky130_fd_sc_hd__dfrtp_2
*CAP
1 *1678:A 0.00103355
2 *2181:A 0.000192864
3 *2081:Q 0.000484523
4 *762:8 0.00171094
5 *1678:B *1678:A 3.36307e-05
6 *1678:C *1678:A 1.02301e-05
7 *1970:A *2181:A 0.000228514
8 *2081:RESET_B *1678:A 0
9 *2081:RESET_B *2181:A 0
10 *2129:A *1678:A 0.000118351
11 *383:12 *1678:A 0.000100165
12 *541:8 *1678:A 0.000117432
13 *699:10 *2181:A 0
14 *699:23 *1678:A 0
15 *699:23 *2181:A 0
*RES
1 *2081:Q *762:8 19.2643 
2 *762:8 *2181:A 17.6214 
3 *762:8 *1678:A 30.1929 
*END

*D_NET *763 0.00523918
*CONN
*I *2241:A I *D sky130_fd_sc_hd__dlygate4sd3_1
*I *1690:B I *D sky130_fd_sc_hd__and4_2
*I *1684:A I *D sky130_fd_sc_hd__and3_2
*I *1839:B I *D sky130_fd_sc_hd__nand3b_2
*I *1647:B I *D sky130_fd_sc_hd__and3_2
*I *1677:C I *D sky130_fd_sc_hd__or4_2
*I *2067:Q O *D sky130_fd_sc_hd__dfrtp_2
*CAP
1 *2241:A 2.6593e-05
2 *1690:B 0.000210537
3 *1684:A 5.70043e-05
4 *1839:B 0.000132
5 *1647:B 0
6 *1677:C 6.0125e-05
7 *2067:Q 8.91722e-05
8 *763:22 0.00016775
9 *763:18 0.000516036
10 *763:12 0.000518963
11 *763:10 0.000506447
12 *763:8 0.000226128
13 *1839:B *1645:A 6.17608e-05
14 *1839:B *1645:B 9.90431e-05
15 *1839:B *1839:C 9.97187e-06
16 *1839:B *764:37 4.38128e-05
17 *1839:B *765:25 1.74352e-05
18 *1839:B *766:28 0.000142856
19 *763:18 *1645:A 2.59355e-05
20 *763:18 *1661:A 0
21 *763:18 *773:14 5.63043e-05
22 *1648:C *1677:C 0.000182694
23 *1661:B *763:18 0.000103256
24 *1676:C *1677:C 2.84494e-05
25 *1676:C *763:22 0.000149896
26 *1684:B *1684:A 9.99644e-06
27 *1690:C *1690:B 1.74352e-05
28 *1690:D *1690:B 0.000199934
29 *1703:A *763:10 0.000113924
30 *1703:A *763:12 0.000269573
31 *1956:A *2241:A 0.000141941
32 *2067:RESET_B *2241:A 7.62323e-05
33 *2067:RESET_B *763:8 3.75959e-05
34 *359:6 *1677:C 0.000180777
35 *385:29 *763:12 4.93999e-05
36 *385:29 *763:18 0.00013863
37 *385:48 *763:12 3.48235e-05
38 *387:10 *1684:A 5.52238e-05
39 *387:10 *763:12 0.000114316
40 *387:10 *763:18 2.95642e-05
41 *756:10 *763:12 0
42 *756:18 *1677:C 5.7616e-05
43 *756:18 *763:22 0.000280028
*RES
1 *2067:Q *763:8 15.4429 
2 *763:8 *763:10 2.25 
3 *763:10 *763:12 4.98214 
4 *763:12 *763:18 10.5536 
5 *763:18 *763:22 8.26786 
6 *763:22 *1677:C 16.3 
7 *763:22 *1647:B 13.8 
8 *763:18 *1839:B 12.7286 
9 *763:12 *1684:A 14.7464 
10 *763:10 *1690:B 18.0321 
11 *763:8 *2241:A 15.1571 
*END

*D_NET *764 0.00414363
*CONN
*I *1699:A I *D sky130_fd_sc_hd__nor2_2
*I *1685:B I *D sky130_fd_sc_hd__and3_2
*I *1646:D I *D sky130_fd_sc_hd__and4_2
*I *1839:A_N I *D sky130_fd_sc_hd__nand3b_2
*I *1645:B I *D sky130_fd_sc_hd__nand2_2
*I *1690:A I *D sky130_fd_sc_hd__and4_2
*I *2068:Q O *D sky130_fd_sc_hd__dfrtp_2
*CAP
1 *1699:A 0
2 *1685:B 6.52561e-05
3 *1646:D 6.54987e-05
4 *1839:A_N 0
5 *1645:B 1.74874e-05
6 *1690:A 6.19735e-05
7 *2068:Q 0.000372022
8 *764:53 0.000379477
9 *764:37 0.00032403
10 *764:27 0.000734758
11 *764:25 0.000271683
12 *764:14 0.000526185
13 *1645:B *1645:A 7.96621e-05
14 *1646:D *765:16 5.26091e-05
15 *1646:D *773:14 8.07879e-05
16 *1685:B *1685:A 2.72967e-05
17 *764:25 *765:10 0
18 *764:27 *765:10 0
19 *764:27 *765:16 0
20 *764:37 *1645:A 2.89016e-05
21 *764:37 *773:14 0
22 *764:53 *1685:A 2.51343e-06
23 *1676:C *764:37 6.2589e-06
24 *1685:C *764:27 7.83659e-05
25 *1685:C *764:53 3.42639e-05
26 *1698:A *1690:A 5.33005e-05
27 *1698:A *764:14 5.50052e-05
28 *1698:A *764:25 0.00020097
29 *1698:B *764:14 1.92905e-05
30 *1698:B *764:25 4.54951e-05
31 *1700:B *764:14 0.000197523
32 *1700:B *764:25 0
33 *1701:B *764:25 6.37408e-06
34 *1701:B *764:27 4.46186e-06
35 *1839:B *1645:B 9.90431e-05
36 *1839:B *764:37 4.38128e-05
37 *2068:CLK *764:14 3.2033e-05
38 *2068:RESET_B *764:14 1.95287e-05
39 *2069:CLK *764:14 6.23278e-05
40 *542:73 *764:14 9.54364e-05
41 *756:12 *764:27 0
42 *756:18 *764:37 0
*RES
1 *2068:Q *764:14 26.4429 
2 *764:14 *1690:A 10.2464 
3 *764:14 *764:25 7.35714 
4 *764:25 *764:27 3.16071 
5 *764:27 *764:37 8.76786 
6 *764:37 *1645:B 10.2464 
7 *764:37 *1839:A_N 9.3 
8 *764:27 *764:53 7.5 
9 *764:53 *1646:D 20.2464 
10 *764:53 *1685:B 10.2464 
11 *764:25 *1699:A 13.8 
*END

*D_NET *765 0.00571343
*CONN
*I *1697:A I *D sky130_fd_sc_hd__or2_2
*I *1691:A I *D sky130_fd_sc_hd__nand2_2
*I *1685:A I *D sky130_fd_sc_hd__and3_2
*I *1839:C I *D sky130_fd_sc_hd__nand3b_2
*I *1645:A I *D sky130_fd_sc_hd__nand2_2
*I *1646:C I *D sky130_fd_sc_hd__and4_2
*I *2069:Q O *D sky130_fd_sc_hd__dfrtp_2
*CAP
1 *1697:A 1.57377e-05
2 *1691:A 8.56455e-05
3 *1685:A 5.68089e-05
4 *1839:C 1.73341e-05
5 *1645:A 0.000111312
6 *1646:C 0
7 *2069:Q 0.000410097
8 *765:60 0.000562399
9 *765:25 0.000285336
10 *765:16 0.000346179
11 *765:10 0.000498964
12 *765:8 0.00112378
13 *1645:A *773:14 0.000206104
14 *765:16 *766:18 5.71472e-05
15 *765:16 *766:28 5.71472e-05
16 *765:16 *767:25 1.19402e-05
17 *765:25 *766:28 9.44023e-05
18 *765:25 *773:14 0.000358971
19 *1645:B *1645:A 7.96621e-05
20 *1646:D *765:16 5.26091e-05
21 *1676:C *1645:A 5.52238e-05
22 *1685:B *1685:A 2.72967e-05
23 *1685:C *1685:A 0.00010096
24 *1686:B *765:16 0
25 *1696:A *765:16 0
26 *1696:B *765:10 0
27 *1698:B *1691:A 0.000123932
28 *1698:B *765:60 3.64864e-05
29 *1698:C *765:60 0.000185403
30 *1700:A *1691:A 4.77002e-05
31 *1700:A *1697:A 5.46383e-06
32 *1700:A *765:60 9.87041e-05
33 *1700:B *765:10 0
34 *1700:B *765:60 0
35 *1701:B *765:60 1.62025e-05
36 *1839:B *1645:A 6.17608e-05
37 *1839:B *1839:C 9.97187e-06
38 *1839:B *765:25 1.74352e-05
39 *1840:D *765:25 3.67257e-05
40 *1957:A *765:60 9.84673e-05
41 *2068:RESET_B *765:60 0.000116853
42 *2069:CLK *765:60 3.79254e-05
43 *2069:D *765:8 6.05161e-06
44 *393:17 *1691:A 0.000141941
45 *542:73 *765:10 0
46 *542:73 *765:60 0
47 *763:18 *1645:A 2.59355e-05
48 *764:25 *765:10 0
49 *764:27 *765:10 0
50 *764:27 *765:16 0
51 *764:37 *1645:A 2.89016e-05
52 *764:53 *1685:A 2.51343e-06
*RES
1 *2069:Q *765:8 20.4964 
2 *765:8 *765:10 4.375 
3 *765:10 *765:16 8.60714 
4 *765:16 *1646:C 9.3 
5 *765:16 *765:25 4.96429 
6 *765:25 *1645:A 13.2821 
7 *765:25 *1839:C 10.0321 
8 *765:10 *1685:A 15.1571 
9 *765:8 *765:60 14.9464 
10 *765:60 *1691:A 12.3179 
11 *765:60 *1697:A 9.72857 
*END

*D_NET *766 0.00451207
*CONN
*I *2227:A I *D sky130_fd_sc_hd__dlygate4sd3_1
*I *1686:A I *D sky130_fd_sc_hd__and2_2
*I *1646:B I *D sky130_fd_sc_hd__and4_2
*I *1837:B I *D sky130_fd_sc_hd__or4bb_2
*I *1677:B I *D sky130_fd_sc_hd__or4_2
*I *2070:Q O *D sky130_fd_sc_hd__dfrtp_2
*CAP
1 *2227:A 9.89683e-05
2 *1686:A 0
3 *1646:B 0
4 *1837:B 0
5 *1677:B 4.41076e-05
6 *2070:Q 0
7 *766:28 0.000551165
8 *766:18 0.000717025
9 *766:14 0.00101155
10 *766:4 0.000900548
11 *1677:B *1675:A 8.00806e-05
12 *1677:B *1837:C_N 0
13 *766:14 *767:14 9.90367e-05
14 *766:18 *1646:A 5.33334e-05
15 *766:18 *767:14 0.000133045
16 *766:28 *1675:A 7.05375e-05
17 *766:28 *1837:C_N 0
18 *1648:B *766:28 0
19 *1676:C *766:28 5.97719e-05
20 *1695:B *766:14 9.25014e-06
21 *1839:B *766:28 0.000142856
22 *1840:D *766:28 9.90431e-05
23 *1959:A *766:14 0
24 *2070:D *766:14 3.69047e-06
25 *2071:CLK *766:14 3.73374e-05
26 *389:10 *766:18 9.90367e-05
27 *542:43 *766:14 5.26091e-05
28 *542:60 *766:14 2.66227e-05
29 *542:73 *766:14 1.37643e-05
30 *699:58 *2227:A 0
31 *700:59 *766:14 0
32 *765:16 *766:18 5.71472e-05
33 *765:16 *766:28 5.71472e-05
34 *765:25 *766:28 9.44023e-05
*RES
1 *2070:Q *766:4 9.3 
2 *766:4 *766:14 20.1071 
3 *766:14 *766:18 4.66071 
4 *766:18 *766:28 13.0714 
5 *766:28 *1677:B 14.8357 
6 *766:28 *1837:B 13.8 
7 *766:18 *1646:B 9.3 
8 *766:14 *1686:A 9.3 
9 *766:4 *2227:A 19.9429 
*END

*D_NET *767 0.00644915
*CONN
*I *1688:B I *D sky130_fd_sc_hd__and3_2
*I *2238:A I *D sky130_fd_sc_hd__dlygate4sd3_1
*I *1837:C_N I *D sky130_fd_sc_hd__or4bb_2
*I *1677:A I *D sky130_fd_sc_hd__or4_2
*I *1687:A I *D sky130_fd_sc_hd__nand2_2
*I *1646:A I *D sky130_fd_sc_hd__and4_2
*I *2071:Q O *D sky130_fd_sc_hd__dfrtp_2
*CAP
1 *1688:B 0.000245267
2 *2238:A 0
3 *1837:C_N 0.000329619
4 *1677:A 1.72734e-05
5 *1687:A 4.68159e-05
6 *1646:A 4.40688e-05
7 *2071:Q 0.000547507
8 *767:42 0.000608678
9 *767:25 0.00057544
10 *767:14 0.00058704
11 *767:12 0.000508038
12 *767:6 0.00102468
13 *1688:B *2207:A 0
14 *1837:C_N *1675:A 0.000125547
15 *1837:C_N *1837:A 1.98839e-05
16 *1837:C_N *770:41 5.33005e-05
17 *767:25 *773:14 0
18 *767:42 *1648:A 0.000307082
19 *1648:B *767:25 0
20 *1648:C *1677:A 0.00010096
21 *1648:C *767:42 0.000216121
22 *1677:B *1837:C_N 0
23 *1686:B *767:25 0
24 *1840:A *1687:A 0
25 *1840:A *767:25 0
26 *1840:B *1837:C_N 5.33334e-05
27 *1840:C *1837:C_N 0.000100979
28 *1960:A *1688:B 2.89114e-05
29 *2071:D *767:12 7.24668e-05
30 *2071:D *767:14 0.000122101
31 *2071:RESET_B *1688:B 0
32 *2073:D *1688:B 0.000176226
33 *359:6 *1677:A 5.33334e-05
34 *359:6 *767:42 7.3237e-05
35 *389:10 *767:25 0
36 *389:14 *1687:A 0
37 *389:14 *767:25 0
38 *542:43 *767:25 0
39 *699:58 *1688:B 0.000113887
40 *765:16 *767:25 1.19402e-05
41 *766:14 *767:14 9.90367e-05
42 *766:18 *1646:A 5.33334e-05
43 *766:18 *767:14 0.000133045
44 *766:28 *1837:C_N 0
*RES
1 *2071:Q *767:6 15.5857 
2 *767:6 *767:12 3.44643 
3 *767:12 *767:14 5.875 
4 *767:14 *1646:A 10.2464 
5 *767:14 *767:25 9.17857 
6 *767:25 *1687:A 14.5321 
7 *767:25 *767:42 10.8214 
8 *767:42 *1677:A 10.2464 
9 *767:42 *1837:C_N 24.675 
10 *767:12 *2238:A 9.3 
11 *767:6 *1688:B 23.8179 
*END

*D_NET *768 0.00626629
*CONN
*I *1648:A I *D sky130_fd_sc_hd__and3_2
*I *2205:A I *D sky130_fd_sc_hd__dlygate4sd3_1
*I *1688:A I *D sky130_fd_sc_hd__and3_2
*I *1675:C I *D sky130_fd_sc_hd__or4b_2
*I *1838:D_N I *D sky130_fd_sc_hd__or4bb_2
*I *2072:Q O *D sky130_fd_sc_hd__dfrtp_2
*CAP
1 *1648:A 0.000309832
2 *2205:A 0.000451275
3 *1688:A 0
4 *1675:C 0
5 *1838:D_N 0.000139966
6 *2072:Q 0
7 *768:38 0.000474363
8 *768:12 0.00132533
9 *768:4 0.00151828
10 *1838:D_N *1675:A 0
11 *768:38 *2207:A 0
12 *1679:B *1838:D_N 0.000147063
13 *1679:B *768:12 0.000201374
14 *1680:B *1838:D_N 0.00014285
15 *1687:B *1648:A 7.77652e-05
16 *1688:C *1648:A 0.000122091
17 *1688:C *2205:A 0.000399835
18 *1960:A *2205:A 0.000403837
19 *2073:D *768:38 6.42242e-05
20 *2073:RESET_B *768:38 0
21 *699:32 *768:38 4.91567e-05
22 *699:58 *768:38 8.17708e-05
23 *757:14 *1838:D_N 1.34741e-05
24 *757:24 *1838:D_N 3.67142e-05
25 *767:42 *1648:A 0.000307082
*RES
1 *2072:Q *768:4 9.3 
2 *768:4 *768:12 15.6786 
3 *768:12 *1838:D_N 21.9071 
4 *768:12 *1675:C 9.3 
5 *768:4 *768:38 15.7321 
6 *768:38 *1688:A 9.3 
7 *768:38 *2205:A 14.3714 
8 *2205:A *1648:A 25.6179 
*END

*D_NET *769 0.00787458
*CONN
*I *2207:A I *D sky130_fd_sc_hd__dlygate4sd3_1
*I *1838:C_N I *D sky130_fd_sc_hd__or4bb_2
*I *1675:B I *D sky130_fd_sc_hd__or4b_2
*I *1647:A I *D sky130_fd_sc_hd__and3_2
*I *2073:Q O *D sky130_fd_sc_hd__dfrtp_2
*CAP
1 *2207:A 0.000252317
2 *1838:C_N 2.9238e-05
3 *1675:B 0.000193447
4 *1647:A 0.00018139
5 *2073:Q 0.000226056
6 *769:35 0.000405664
7 *769:8 0.00178615
8 *769:6 0.00190015
9 *1675:B *1675:A 0.000190438
10 *1675:B *771:16 2.69483e-05
11 *769:35 *1675:A 0.000276701
12 mem_wdata[19] *2207:A 2.26973e-05
13 *1648:C *1647:A 5.33005e-05
14 *1676:C *1647:A 9.91086e-05
15 *1676:D *1675:B 0.000123497
16 *1676:D *769:35 0.000144015
17 *1677:D *1647:A 5.33005e-05
18 *1679:B *769:35 0
19 *1680:B *1838:C_N 5.33005e-05
20 *1688:B *2207:A 0
21 *2071:RESET_B *2207:A 0.000126439
22 *2073:CLK *769:8 0.000490416
23 *2073:D *2207:A 0
24 *2075:CLK *1647:A 0.000136951
25 *2075:CLK *769:8 0.000431224
26 *385:29 *1647:A 0
27 *542:14 *769:8 0.000528337
28 *756:18 *1647:A 1.76135e-05
29 *757:24 *769:35 0.000125879
30 *768:38 *2207:A 0
*RES
1 *2073:Q *769:6 11.8893 
2 *769:6 *769:8 19.0179 
3 *769:8 *1647:A 21.5321 
4 *769:8 *769:35 18.0357 
5 *769:35 *1675:B 17.9071 
6 *769:35 *1838:C_N 14.3357 
7 *769:6 *2207:A 22.9071 
*END

*D_NET *770 0.00492203
*CONN
*I *1675:A I *D sky130_fd_sc_hd__or4b_2
*I *1837:D_N I *D sky130_fd_sc_hd__or4bb_2
*I *1661:A I *D sky130_fd_sc_hd__and3_2
*I *2232:A I *D sky130_fd_sc_hd__dlygate4sd3_1
*I *1657:B I *D sky130_fd_sc_hd__nand4_2
*I *2074:Q O *D sky130_fd_sc_hd__dfrtp_2
*CAP
1 *1675:A 0.000440536
2 *1837:D_N 0
3 *1661:A 0.000142941
4 *2232:A 9.12485e-05
5 *1657:B 0.0001503
6 *2074:Q 0
7 *770:41 0.000653504
8 *770:19 0.000319984
9 *770:8 0.000426096
10 *770:4 0.000402969
11 *1675:A *1837:A 0.000137983
12 *2232:A *773:14 0.000123068
13 *770:41 *1837:A 0.000310292
14 *1675:B *1675:A 0.000190438
15 *1676:C *1675:A 0.000402595
16 *1676:D *1675:A 1.81709e-05
17 *1677:B *1675:A 8.00806e-05
18 *1679:B *1675:A 0
19 *1682:B1 *1657:B 0.00025263
20 *1682:B1 *770:19 6.98302e-05
21 *1837:C_N *1675:A 0.000125547
22 *1837:C_N *770:41 5.33005e-05
23 *1838:D_N *1675:A 0
24 *1840:C *1675:A 0
25 *372:12 *1661:A 6.07232e-05
26 *372:12 *770:19 1.76135e-05
27 *372:14 *1657:B 1.3142e-05
28 *372:14 *770:19 2.58997e-05
29 *696:61 *1661:A 0
30 *696:80 *1661:A 3.10885e-05
31 *757:24 *1675:A 3.48139e-05
32 *763:18 *1661:A 0
33 *766:28 *1675:A 7.05375e-05
34 *769:35 *1675:A 0.000276701
*RES
1 *2074:Q *770:4 9.3 
2 *770:4 *770:8 6.67857 
3 *770:8 *1657:B 17.2643 
4 *770:8 *770:19 1.94643 
5 *770:19 *2232:A 15.9786 
6 *770:19 *1661:A 16.6571 
7 *770:4 *770:41 4.55357 
8 *770:41 *1837:D_N 9.3 
9 *770:41 *1675:A 30.0321 
*END

*D_NET *771 0.00591818
*CONN
*I *1675:D_N I *D sky130_fd_sc_hd__or4b_2
*I *1837:A I *D sky130_fd_sc_hd__or4bb_2
*I *1657:A I *D sky130_fd_sc_hd__nand4_2
*I *1662:B I *D sky130_fd_sc_hd__and3_2
*I *1681:A1 I *D sky130_fd_sc_hd__o211a_2
*I *2075:Q O *D sky130_fd_sc_hd__dfrtp_2
*CAP
1 *1675:D_N 0
2 *1837:A 0.000369808
3 *1657:A 3.34014e-05
4 *1662:B 0
5 *1681:A1 7.57957e-05
6 *2075:Q 0.000521434
7 *771:44 0.00056278
8 *771:20 0.000292424
9 *771:16 0.000668046
10 *771:8 0.000813281
11 *1661:B *1837:A 0.00020042
12 *1673:B *1657:A 7.53589e-05
13 *1673:B *771:44 9.01238e-05
14 *1675:A *1837:A 0.000137983
15 *1675:B *771:16 2.69483e-05
16 *1676:D *771:16 0.000293588
17 *1680:A *771:20 1.98839e-05
18 *1680:A *771:44 2.71557e-05
19 *1681:A2 *1681:A1 0.000127446
20 *1681:B1 *771:8 0.000134986
21 *1681:C1 *1681:A1 0.000109865
22 *1837:C_N *1837:A 1.98839e-05
23 *1964:A *771:20 0.000226264
24 *2075:CLK *771:16 0.000114218
25 *2075:D *1681:A1 0
26 *2075:RESET_B *771:8 9.46105e-05
27 *359:6 *1657:A 2.14658e-05
28 *359:12 *1657:A 5.5033e-05
29 *372:14 *771:44 0
30 *373:12 *1681:A1 1.45844e-05
31 *373:28 *1681:A1 1.71468e-05
32 *385:29 *1837:A 8.73652e-05
33 *385:29 *771:44 1.69115e-05
34 *757:39 *771:16 0.000307343
35 *757:39 *771:20 5.23287e-05
36 *770:41 *1837:A 0.000310292
*RES
1 *2075:Q *771:8 18.8893 
2 *771:8 *771:16 16.375 
3 *771:16 *771:20 3.83929 
4 *771:20 *1681:A1 20.5991 
5 *771:20 *1662:B 9.3 
6 *771:16 *771:44 7.35714 
7 *771:44 *1657:A 15.1571 
8 *771:44 *1837:A 22.0321 
9 *771:8 *1675:D_N 9.3 
*END

*D_NET *772 0.00257312
*CONN
*I *2121:D I *D sky130_fd_sc_hd__dfstp_2
*I *1836:X O *D sky130_fd_sc_hd__or4b_2
*CAP
1 *2121:D 0.000911016
2 *1836:X 0.000911016
3 *1650:A *2121:D 3.34803e-05
4 *1650:B *2121:D 0.000119048
5 *1836:B *2121:D 1.90303e-05
6 *1925:A1 *2121:D 6.82912e-05
7 *1925:A3 *2121:D 7.65336e-06
8 *1925:B1 *2121:D 4.13122e-06
9 *1998:A *2121:D 0.000271904
10 *2109:RESET_B *2121:D 3.67419e-05
11 *549:55 *2121:D 0.000135028
12 *687:47 *2121:D 0
13 *687:70 *2121:D 0
14 *749:21 *2121:D 5.5782e-05
*RES
1 *1836:X *2121:D 43.5464 
*END

*D_NET *773 0.00901789
*CONN
*I *2122:D I *D sky130_fd_sc_hd__dfstp_2
*I *1840:X O *D sky130_fd_sc_hd__or4_2
*CAP
1 *2122:D 0
2 *1840:X 0.00141566
3 *773:20 0.00195449
4 *773:14 0.00337015
5 *1645:A *773:14 0.000206104
6 *1646:D *773:14 8.07879e-05
7 *1648:B *773:14 8.00806e-05
8 *1676:C *773:14 5.52238e-05
9 *1683:A *773:14 8.20547e-05
10 *1705:B *773:20 0.000150348
11 *1705:C *773:20 0.000386879
12 *1928:A_N *773:20 0.000210176
13 *2067:CLK *773:20 0.000181183
14 *2110:RESET_B *773:20 2.8456e-05
15 *2232:A *773:14 0.000123068
16 *540:79 *773:20 0.000198432
17 *696:61 *773:20 7.9529e-05
18 *763:18 *773:14 5.63043e-05
19 *764:37 *773:14 0
20 *765:25 *773:14 0.000358971
21 *767:25 *773:14 0
*RES
1 *1840:X *773:14 41.9071 
2 *773:14 *773:20 43.7679 
3 *773:20 *2122:D 9.3 
*END

*D_NET *774 0.00169216
*CONN
*I *1621:B1 I *D sky130_fd_sc_hd__a31o_2
*I *2104:Q O *D sky130_fd_sc_hd__dfrtp_2
*CAP
1 *1621:B1 0.000333247
2 *2104:Q 0.000333247
3 *1621:B1 *1623:B1 0
4 *1621:A2 *1621:B1 7.32173e-05
5 *1622:A *1621:B1 0.000222885
6 *1622:B *1621:B1 0.00027025
7 *1722:A1 *1621:B1 0
8 *1722:A3 *1621:B1 0.000227526
9 *2103:RESET_B *1621:B1 0
10 *539:24 *1621:B1 5.01213e-05
11 *711:10 *1621:B1 0
12 *727:40 *1621:B1 0
13 *734:63 *1621:B1 0.000126439
14 *734:71 *1621:B1 5.52302e-05
*RES
1 *2104:Q *1621:B1 37.0107 
*END

*D_NET *775 0.00197658
*CONN
*I *1778:A1 I *D sky130_fd_sc_hd__a22o_2
*I *1640:S I *D sky130_fd_sc_hd__mux2_1
*I *1634:B I *D sky130_fd_sc_hd__nand2b_2
*I *2015:Q O *D sky130_fd_sc_hd__dfstp_2
*CAP
1 *1778:A1 0.000105146
2 *1640:S 0
3 *1634:B 3.90818e-05
4 *2015:Q 0.000434632
5 *775:14 0.000368568
6 *1640:A1 *1634:B 0.000227532
7 *1640:A1 *775:14 4.38128e-05
8 *1643:B1 *1634:B 0.000227532
9 *1643:B1 *775:14 5.52238e-05
10 *1778:A2 *1778:A1 0.000160879
11 *1778:A2 *775:14 1.4487e-05
12 *1778:B1 *1778:A1 3.82411e-05
13 *1778:B1 *775:14 0.000261446
14 *1779:B1_N *775:14 0
15 *347:10 *775:14 0
*RES
1 *2015:Q *775:14 23.4786 
2 *775:14 *1634:B 11.4786 
3 *775:14 *1640:S 9.3 
4 *2015:Q *1778:A1 20.7786 
*END

*D_NET *776 0.0047776
*CONN
*I *1778:B2 I *D sky130_fd_sc_hd__a22o_2
*I *1640:A0 I *D sky130_fd_sc_hd__mux2_1
*I *1644:A1 I *D sky130_fd_sc_hd__a31o_2
*I *1642:A1 I *D sky130_fd_sc_hd__a31oi_2
*I *1639:A I *D sky130_fd_sc_hd__nand2_2
*I *1779:A1 I *D sky130_fd_sc_hd__a21bo_2
*I *2016:Q O *D sky130_fd_sc_hd__dfrtp_2
*CAP
1 *1778:B2 0.000141906
2 *1640:A0 5.98952e-05
3 *1644:A1 0.000215134
4 *1642:A1 0
5 *1639:A 7.00287e-05
6 *1779:A1 0.000119123
7 *2016:Q 0.00033547
8 *776:25 9.38036e-05
9 *776:23 0.000288767
10 *776:21 0.00027195
11 *776:8 0.000774379
12 *776:6 0.000970434
13 *1642:A2 *1644:A1 4.88637e-05
14 *1643:B1 *1640:A0 4.58194e-05
15 *1644:B1 *1644:A1 0.000224577
16 *1779:A2 *1639:A 3.34366e-05
17 *1779:A2 *776:21 0.000326679
18 *1779:A2 *776:23 0.000117189
19 *1779:A2 *776:25 4.56437e-05
20 *2016:CLK *1779:A1 3.14048e-05
21 *2016:CLK *776:8 6.62983e-05
22 *2016:D *1778:B2 0
23 *350:10 *1639:A 0.000199449
24 *694:53 *1639:A 5.74242e-05
25 *701:74 *1639:A 6.27933e-05
26 *701:74 *776:21 0.000114833
27 *701:74 *776:23 4.35048e-05
28 *701:74 *776:25 1.87955e-05
*RES
1 *2016:Q *776:6 13.1214 
2 *776:6 *776:8 5.875 
3 *776:8 *1779:A1 10.9786 
4 *776:8 *776:21 8.875 
5 *776:21 *776:23 1.64286 
6 *776:23 *776:25 0.732143 
7 *776:25 *1639:A 16.6571 
8 *776:25 *1642:A1 13.8 
9 *776:23 *1644:A1 16.8 
10 *776:21 *1640:A0 14.7464 
11 *776:6 *1778:B2 20.4786 
*END

*D_NET *777 0.000770533
*CONN
*I *1623:B1 I *D sky130_fd_sc_hd__a31o_2
*I *2103:Q O *D sky130_fd_sc_hd__dfrtp_2
*CAP
1 *1623:B1 0.000152005
2 *2103:Q 0.000152005
3 *1621:B1 *1623:B1 0
4 *1623:A1 *1623:B1 0.000125724
5 *341:31 *1623:B1 0.000197991
6 *711:20 *1623:B1 8.5662e-05
7 *734:71 *1623:B1 5.71472e-05
*RES
1 *2103:Q *1623:B1 31.9036 
*END

*D_NET *778 0.00379038
*CONN
*I *1631:A I *D sky130_fd_sc_hd__and3_2
*I *1630:A1 I *D sky130_fd_sc_hd__a22o_2
*I *1777:A1 I *D sky130_fd_sc_hd__a21o_2
*I *1629:B I *D sky130_fd_sc_hd__nand2_2
*I *2013:Q O *D sky130_fd_sc_hd__dfstp_2
*CAP
1 *1631:A 0.000377991
2 *1630:A1 2.35914e-05
3 *1777:A1 2.85958e-05
4 *1629:B 0.000136588
5 *2013:Q 0.000503865
6 *778:36 0.000496113
7 *778:25 0.000141376
8 *778:10 0.000658702
9 *1630:B2 *1630:A1 4.13122e-06
10 *1631:B *1631:A 0
11 *1631:C *1631:A 5.33005e-05
12 *1777:A2 *1777:A1 3.50166e-05
13 *1777:A2 *778:36 0.000228508
14 *1777:B1 *1777:A1 5.38444e-06
15 *2013:D *778:10 1.9774e-05
16 *2013:D *778:25 5.49544e-05
17 *2013:D *778:36 9.99853e-05
18 *2031:CLK *1629:B 5.65955e-05
19 *338:12 *1630:A1 5.58941e-05
20 *338:12 *1631:A 0.000390583
21 *341:31 *778:25 1.21084e-05
22 *341:31 *778:36 7.15905e-06
23 *345:12 *1629:B 0.000222471
24 *345:12 *778:10 8.90892e-05
25 *685:6 *1631:A 6.05161e-06
26 *685:10 *1631:A 2.59355e-05
27 *685:26 *1631:A 5.66157e-05
*RES
1 *2013:Q *778:10 20.1929 
2 *778:10 *1629:B 17.1929 
3 *778:10 *778:25 5.03571 
4 *778:25 *1777:A1 10.0321 
5 *778:25 *778:36 7.08929 
6 *778:36 *1630:A1 14.5321 
7 *778:36 *1631:A 21.7464 
*END

*D_NET *779 0.00164777
*CONN
*I *1628:B I *D sky130_fd_sc_hd__nand3_2
*I *1627:B I *D sky130_fd_sc_hd__and3_2
*I *1617:A I *D sky130_fd_sc_hd__inv_2
*I *2014:Q O *D sky130_fd_sc_hd__dfrtp_2
*CAP
1 *1628:B 6.66774e-05
2 *1627:B 0.000130505
3 *1617:A 2.30451e-05
4 *2014:Q 0.000119111
5 *779:14 0.000227163
6 *779:10 0.000259401
7 *1628:A *1628:B 9.43406e-05
8 *1628:A *779:10 4.13122e-06
9 *1629:A *1627:B 1.32056e-05
10 *1629:A *779:14 2.36643e-05
11 *1632:B1 *1617:A 1.02132e-05
12 *1632:B1 *1627:B 3.34461e-05
13 *1632:B1 *779:14 4.51301e-05
14 *1775:B1 *779:10 6.77287e-05
15 *2031:CLK *1628:B 0.000166983
16 *333:6 *779:14 9.58126e-05
17 *342:10 *1628:B 1.31516e-05
18 *551:33 *1628:B 9.25014e-06
19 *551:33 *779:10 0.000146474
20 *555:31 *1627:B 9.83388e-05
*RES
1 *2014:Q *779:10 16.2821 
2 *779:10 *779:14 6.26786 
3 *779:14 *1617:A 9.72857 
4 *779:14 *1627:B 11.925 
5 *779:10 *1628:B 16.3536 
*END
