*SPEF "ieee 1481-1999"
*DESIGN "soc_top"
*DATE "10:35:06 Friday September 11, 2026"
*VENDOR "The OpenROAD Project"
*PROGRAM "OpenROAD"
*VERSION "dcf36133a369abc8f3c5e5738cd4d82e4903c0e0"
*DESIGN_FLOW "NAME_SCOPE LOCAL" "PIN_CAP NONE"
*DIVIDER /
*DELIMITER :
*BUS_DELIMITER []
*T_UNIT 1 NS
*C_UNIT 1 PF
*R_UNIT 1 OHM
*L_UNIT 1 HENRY

*NAME_MAP
*1 Hsync
*4 Vsync
*5 net
*6 net64
*7 net65
*8 net66
*9 net67
*10 net68
*11 net69
*12 net70
*13 clk
*14 cpu_stall
*15 net71
*16 net72
*17 net73
*18 net74
*19 net75
*20 net76
*21 net77
*22 net78
*23 net79
*24 net80
*25 net90
*26 net91
*27 net92
*28 net93
*29 net94
*30 net95
*31 net96
*32 net97
*33 net98
*34 net99
*35 net81
*36 net100
*37 net101
*38 net102
*39 net103
*40 net104
*41 net105
*42 net106
*43 net107
*44 net108
*45 net109
*46 net82
*47 net110
*48 net111
*49 net83
*50 net84
*51 net85
*52 net86
*53 net87
*54 net88
*55 net89
*56 net112
*57 net113
*58 net123
*59 net124
*60 net125
*61 net126
*62 net127
*63 net128
*64 net129
*65 net130
*66 net131
*67 net132
*68 net114
*69 net133
*70 net134
*71 net135
*72 net136
*73 net137
*74 net138
*75 net139
*76 net140
*77 net141
*78 net142
*79 net115
*80 net143
*81 net144
*82 net116
*83 net117
*84 net118
*85 net119
*86 net120
*87 net121
*88 net122
*89 net145
*90 net146
*91 pcRegister[10]
*92 pcRegister[11]
*93 pcRegister[12]
*94 pcRegister[13]
*95 pcRegister[14]
*96 pcRegister[15]
*97 pcRegister[16]
*98 pcRegister[17]
*99 pcRegister[18]
*100 pcRegister[19]
*101 net147
*102 pcRegister[20]
*103 pcRegister[21]
*104 pcRegister[22]
*105 pcRegister[23]
*106 pcRegister[24]
*107 pcRegister[25]
*108 pcRegister[26]
*109 pcRegister[27]
*110 pcRegister[28]
*111 pcRegister[29]
*112 pcRegister[2]
*113 pcRegister[30]
*114 pcRegister[31]
*115 pcRegister[3]
*116 pcRegister[4]
*117 pcRegister[5]
*118 pcRegister[6]
*119 pcRegister[7]
*120 pcRegister[8]
*121 pcRegister[9]
*122 net148
*123 net149
*124 net150
*125 net151
*126 net152
*127 net153
*128 net154
*129 net155
*130 reset
*131 _0000_
*132 _0001_
*133 _0002_
*134 _0003_
*135 _0004_
*136 _0005_
*137 _0006_
*138 _0007_
*139 _0008_
*140 _0009_
*141 _0010_
*142 _0011_
*143 _0012_
*144 _0013_
*145 _0014_
*146 _0015_
*147 _0016_
*148 _0017_
*149 _0018_
*150 _0019_
*151 _0020_
*152 _0021_
*153 _0022_
*154 _0023_
*155 _0024_
*156 _0025_
*157 _0026_
*158 _0027_
*159 _0028_
*160 _0029_
*161 _0030_
*162 _0031_
*163 _0032_
*164 _0033_
*165 _0034_
*166 _0035_
*167 _0036_
*168 _0037_
*169 _0038_
*170 _0039_
*171 _0040_
*172 _0041_
*173 _0042_
*174 _0043_
*175 _0044_
*176 _0045_
*177 _0046_
*178 _0047_
*179 _0048_
*180 _0049_
*181 _0050_
*182 _0051_
*183 _0052_
*184 _0053_
*185 _0054_
*186 _0055_
*187 _0056_
*188 _0057_
*189 _0058_
*190 _0059_
*191 _0060_
*192 _0061_
*193 _0062_
*194 _0063_
*195 _0064_
*196 _0065_
*197 _0066_
*198 _0067_
*199 _0068_
*200 _0069_
*201 _0070_
*202 _0071_
*203 _0072_
*204 _0073_
*205 _0074_
*206 _0075_
*207 _0076_
*208 _0077_
*209 _0078_
*210 _0079_
*211 _0080_
*212 _0081_
*213 _0082_
*214 _0083_
*215 _0084_
*216 _0085_
*217 _0086_
*218 _0087_
*219 _0088_
*220 _0089_
*221 _0090_
*222 _0091_
*223 _0092_
*224 _0093_
*225 _0094_
*226 _0095_
*227 _0096_
*228 _0097_
*229 _0098_
*230 _0099_
*231 _0100_
*232 _0101_
*233 _0102_
*234 _0103_
*235 _0104_
*236 _0105_
*237 _0106_
*238 _0107_
*239 _0108_
*240 _0109_
*241 _0110_
*242 _0111_
*243 _0112_
*244 _0113_
*245 _0114_
*246 _0115_
*247 _0116_
*248 _0117_
*249 _0118_
*250 _0119_
*251 _0120_
*252 _0121_
*253 _0122_
*254 _0123_
*255 _0124_
*256 _0125_
*257 _0126_
*258 _0127_
*259 _0128_
*260 _0129_
*261 _0130_
*262 _0131_
*263 _0132_
*264 _0133_
*265 _0134_
*266 _0135_
*267 _0136_
*268 _0137_
*269 _0138_
*270 _0139_
*271 _0140_
*272 _0141_
*273 _0142_
*274 _0143_
*275 _0144_
*276 _0145_
*277 _0146_
*278 _0147_
*279 _0148_
*280 _0149_
*281 _0150_
*282 _0151_
*283 _0152_
*284 _0153_
*285 _0154_
*286 _0155_
*287 _0156_
*288 _0157_
*289 _0158_
*290 _0159_
*291 _0160_
*292 _0161_
*293 _0162_
*294 _0163_
*295 _0164_
*296 _0165_
*297 _0166_
*298 _0167_
*299 _0168_
*300 _0169_
*301 _0170_
*302 _0171_
*303 _0172_
*304 _0173_
*305 _0174_
*306 _0175_
*307 _0176_
*308 _0177_
*309 _0178_
*310 _0179_
*311 _0180_
*312 _0181_
*313 _0182_
*314 _0183_
*315 _0184_
*316 _0185_
*317 _0186_
*318 _0187_
*319 _0188_
*320 _0189_
*321 _0190_
*322 _0191_
*323 _0192_
*324 _0193_
*325 _0194_
*326 _0195_
*327 _0196_
*328 _0197_
*329 _0198_
*330 _0199_
*331 _0200_
*332 _0201_
*333 _0202_
*334 _0203_
*335 _0204_
*336 _0205_
*337 _0206_
*338 _0207_
*339 _0208_
*340 _0209_
*341 _0210_
*342 _0211_
*343 _0212_
*344 _0213_
*345 _0214_
*346 _0215_
*347 _0216_
*348 _0217_
*349 _0218_
*350 _0219_
*351 _0220_
*352 _0221_
*353 _0222_
*354 _0223_
*355 _0224_
*356 _0225_
*357 _0226_
*358 _0227_
*359 _0228_
*360 _0229_
*361 _0230_
*362 _0231_
*363 _0232_
*364 _0233_
*365 _0234_
*366 _0235_
*367 _0236_
*368 _0237_
*369 _0238_
*370 _0239_
*371 _0240_
*372 _0241_
*373 _0242_
*374 _0243_
*375 _0244_
*376 _0245_
*377 _0246_
*378 _0247_
*379 _0248_
*380 _0249_
*381 _0250_
*382 _0251_
*383 _0252_
*384 _0253_
*385 _0254_
*386 _0255_
*387 _0256_
*388 _0257_
*389 _0258_
*390 _0259_
*391 _0260_
*392 _0261_
*393 _0262_
*394 _0263_
*395 _0264_
*396 _0265_
*397 _0266_
*398 _0267_
*399 _0268_
*400 _0269_
*401 _0270_
*402 _0271_
*403 _0272_
*404 _0273_
*405 _0274_
*406 _0275_
*407 _0276_
*408 _0277_
*409 _0278_
*410 _0279_
*411 _0280_
*412 _0281_
*413 _0282_
*414 _0283_
*415 _0284_
*416 _0285_
*417 _0286_
*418 _0287_
*419 _0288_
*420 _0289_
*421 _0290_
*422 _0291_
*423 _0292_
*424 _0293_
*425 _0294_
*426 _0295_
*427 _0296_
*428 _0297_
*429 _0298_
*430 _0299_
*431 _0300_
*432 _0301_
*433 _0302_
*434 _0303_
*435 _0304_
*436 _0305_
*437 _0306_
*438 _0307_
*439 _0308_
*440 _0309_
*441 _0310_
*442 _0311_
*443 _0312_
*444 _0313_
*445 _0314_
*446 _0315_
*447 _0316_
*448 _0317_
*449 _0318_
*450 _0319_
*451 _0320_
*452 _0321_
*453 _0322_
*454 _0323_
*455 _0324_
*456 _0325_
*457 _0326_
*458 _0327_
*459 _0328_
*460 _0329_
*461 _0330_
*462 _0331_
*463 _0332_
*464 _0333_
*465 _0334_
*466 _0335_
*467 _0336_
*468 _0337_
*469 _0338_
*470 _0339_
*471 _0340_
*472 _0341_
*473 _0342_
*474 _0343_
*475 _0344_
*476 _0345_
*477 _0346_
*478 _0347_
*479 _0348_
*480 _0349_
*481 _0350_
*482 _0351_
*483 _0352_
*484 _0353_
*485 _0354_
*486 _0355_
*487 _0356_
*488 _0357_
*489 _0358_
*490 _0359_
*491 _0360_
*492 _0361_
*493 _0362_
*494 _0363_
*495 _0364_
*496 _0365_
*497 _0366_
*498 _0367_
*499 _0368_
*500 _0369_
*501 _0370_
*502 _0371_
*503 _0372_
*504 _0373_
*505 _0374_
*506 _0375_
*507 _0376_
*508 _0377_
*509 _0378_
*510 _0379_
*511 _0380_
*512 _0381_
*513 _0382_
*514 _0383_
*515 _0384_
*516 _0385_
*517 _0386_
*518 _0387_
*519 _0388_
*520 _0389_
*521 _0390_
*522 _0391_
*523 _0392_
*524 _0393_
*525 _0394_
*526 _0395_
*527 _0396_
*528 _0397_
*529 _0398_
*530 _0399_
*531 _0400_
*532 _0401_
*533 _0402_
*534 _0403_
*535 clknet_0_clk
*536 clknet_4_0_0_clk
*537 clknet_4_10_0_clk
*538 clknet_4_11_0_clk
*539 clknet_4_12_0_clk
*540 clknet_4_13_0_clk
*541 clknet_4_14_0_clk
*542 clknet_4_15_0_clk
*543 clknet_4_1_0_clk
*544 clknet_4_2_0_clk
*545 clknet_4_3_0_clk
*546 clknet_4_4_0_clk
*547 clknet_4_5_0_clk
*548 clknet_4_6_0_clk
*549 clknet_4_7_0_clk
*550 clknet_4_8_0_clk
*551 clknet_4_9_0_clk
*552 m_axi_arready
*553 m_axi_arvalid
*554 m_axi_awvalid
*555 m_axi_bready
*556 m_axi_rready
*557 m_axi_wvalid
*558 net1
*559 net10
*560 net11
*561 net12
*562 net13
*563 net14
*564 net15
*565 net156
*566 net157
*567 net158
*568 net159
*569 net16
*570 net160
*571 net161
*572 net162
*573 net163
*574 net164
*575 net165
*576 net166
*577 net167
*578 net168
*579 net169
*580 net17
*581 net170
*582 net171
*583 net172
*584 net173
*585 net174
*586 net175
*587 net176
*588 net177
*589 net178
*590 net179
*591 net18
*592 net180
*593 net181
*594 net182
*595 net183
*596 net184
*597 net185
*598 net186
*599 net187
*600 net188
*601 net189
*602 net19
*603 net190
*604 net191
*605 net192
*606 net193
*607 net194
*608 net195
*609 net196
*610 net197
*611 net198
*612 net199
*613 net2
*614 net20
*615 net200
*616 net201
*617 net202
*618 net203
*619 net204
*620 net205
*621 net206
*622 net207
*623 net208
*624 net209
*625 net21
*626 net210
*627 net211
*628 net212
*629 net213
*630 net214
*631 net215
*632 net216
*633 net217
*634 net218
*635 net219
*636 net22
*637 net220
*638 net221
*639 net222
*640 net223
*641 net224
*642 net225
*643 net226
*644 net227
*645 net228
*646 net229
*647 net23
*648 net230
*649 net231
*650 net232
*651 net233
*652 net234
*653 net235
*654 net236
*655 net237
*656 net238
*657 net239
*658 net24
*659 net25
*660 net26
*661 net27
*662 net28
*663 net29
*664 net3
*665 net30
*666 net31
*667 net32
*668 net33
*669 net34
*670 net35
*671 net36
*672 net37
*673 net38
*674 net39
*675 net4
*676 net40
*677 net41
*678 net42
*679 net43
*680 net44
*681 net45
*682 net46
*683 net47
*684 net48
*685 net49
*686 net5
*687 net50
*688 net51
*689 net52
*690 net53
*691 net54
*692 net55
*693 net56
*694 net57
*695 net58
*696 net59
*697 net6
*698 net60
*699 net61
*700 net62
*701 net63
*702 net7
*703 net8
*704 net9
*705 s0_axi_bvalid
*706 s0_axi_rvalid
*707 s1_axi_arready
*708 s1_axi_awready
*709 s1_axi_bvalid
*710 s1_axi_rvalid
*711 s1_axi_wready
*712 u_axi_bridge\.state\[0\]
*713 u_axi_bridge\.state\[1\]
*714 u_axi_bridge\.state\[2\]
*715 u_axi_decoder\.aw_latched
*716 u_axi_decoder\.rd_state\[1\]
*717 u_axi_decoder\.rd_state\[2\]
*718 u_axi_decoder\.rd_state\[3\]
*719 u_axi_decoder\.rd_state\[4\]
*720 u_axi_decoder\.rd_target_owner\[1\]
*721 u_axi_decoder\.rd_target_owner\[2\]
*722 u_axi_decoder\.s0_arvalid_reg
*723 u_axi_decoder\.s0_awvalid_reg
*724 u_axi_decoder\.s0_wvalid_reg
*725 u_axi_decoder\.s1_arvalid_reg
*726 u_axi_decoder\.s1_awvalid_reg
*727 u_axi_decoder\.s1_wvalid_reg
*728 u_axi_decoder\.unmapped_bvalid_reg
*729 u_axi_decoder\.unmapped_rvalid_reg
*730 u_axi_decoder\.w_latched
*731 u_axi_decoder\.wr_state\[0\]
*732 u_axi_decoder\.wr_state\[1\]
*733 u_axi_decoder\.wr_state\[2\]
*734 u_axi_decoder\.wr_state\[3\]
*735 u_axi_decoder\.wr_state\[4\]
*736 u_axi_decoder\.wr_target_owner\[1\]
*737 u_axi_decoder\.wr_target_owner\[2\]
*738 u_data_memory\.aw_latched
*739 u_data_memory\.w_latched
*740 u_vga_controller\.H_count\[0\]
*741 u_vga_controller\.H_count\[10\]
*742 u_vga_controller\.H_count\[11\]
*743 u_vga_controller\.H_count\[12\]
*744 u_vga_controller\.H_count\[13\]
*745 u_vga_controller\.H_count\[14\]
*746 u_vga_controller\.H_count\[15\]
*747 u_vga_controller\.H_count\[1\]
*748 u_vga_controller\.H_count\[2\]
*749 u_vga_controller\.H_count\[3\]
*750 u_vga_controller\.H_count\[4\]
*751 u_vga_controller\.H_count\[5\]
*752 u_vga_controller\.H_count\[6\]
*753 u_vga_controller\.H_count\[7\]
*754 u_vga_controller\.H_count\[8\]
*755 u_vga_controller\.H_count\[9\]
*756 u_vga_controller\.V_count\[0\]
*757 u_vga_controller\.V_count\[10\]
*758 u_vga_controller\.V_count\[11\]
*759 u_vga_controller\.V_count\[12\]
*760 u_vga_controller\.V_count\[13\]
*761 u_vga_controller\.V_count\[14\]
*762 u_vga_controller\.V_count\[15\]
*763 u_vga_controller\.V_count\[1\]
*764 u_vga_controller\.V_count\[2\]
*765 u_vga_controller\.V_count\[3\]
*766 u_vga_controller\.V_count\[4\]
*767 u_vga_controller\.V_count\[5\]
*768 u_vga_controller\.V_count\[6\]
*769 u_vga_controller\.V_count\[7\]
*770 u_vga_controller\.V_count\[8\]
*771 u_vga_controller\.V_count\[9\]
*772 u_vga_controller\.raw_hsync
*773 u_vga_controller\.raw_vsync
*774 u_vga_registers\.aw_latched
*775 u_vga_registers\.rd_state\[0\]
*776 u_vga_registers\.rd_state\[3\]
*777 u_vga_registers\.w_latched
*778 u_vga_registers\.wr_state\[0\]
*779 u_vga_registers\.wr_state\[1\]
*780 FILLER_0_105
*781 FILLER_0_108
*782 FILLER_0_111
*783 FILLER_0_113
*784 FILLER_0_137
*785 FILLER_0_149
*786 FILLER_0_152
*787 FILLER_0_155
*788 FILLER_0_158
*789 FILLER_0_16
*790 FILLER_0_161
*791 FILLER_0_164
*792 FILLER_0_167
*793 FILLER_0_169
*794 FILLER_0_174
*795 FILLER_0_177
*796 FILLER_0_180
*797 FILLER_0_191
*798 FILLER_0_194
*799 FILLER_0_197
*800 FILLER_0_200
*801 FILLER_0_203
*802 FILLER_0_206
*803 FILLER_0_209
*804 FILLER_0_212
*805 FILLER_0_215
*806 FILLER_0_25
*807 FILLER_0_29
*808 FILLER_0_3
*809 FILLER_0_44
*810 FILLER_0_47
*811 FILLER_0_6
*812 FILLER_0_83
*813 FILLER_0_93
*814 FILLER_0_97
*815 FILLER_10_107
*816 FILLER_10_110
*817 FILLER_10_113
*818 FILLER_10_148
*819 FILLER_10_164
*820 FILLER_10_184
*821 FILLER_10_193
*822 FILLER_10_206
*823 FILLER_10_210
*824 FILLER_10_3
*825 FILLER_10_56
*826 FILLER_10_6
*827 FILLER_10_85
*828 FILLER_11_113
*829 FILLER_11_116
*830 FILLER_11_138
*831 FILLER_11_149
*832 FILLER_11_152
*833 FILLER_11_155
*834 FILLER_11_158
*835 FILLER_11_193
*836 FILLER_11_196
*837 FILLER_11_199
*838 FILLER_11_202
*839 FILLER_11_205
*840 FILLER_11_208
*841 FILLER_11_55
*842 FILLER_12_102
*843 FILLER_12_147
*844 FILLER_12_152
*845 FILLER_12_16
*846 FILLER_12_194
*847 FILLER_12_197
*848 FILLER_12_200
*849 FILLER_12_203
*850 FILLER_12_206
*851 FILLER_12_211
*852 FILLER_12_27
*853 FILLER_12_29
*854 FILLER_12_3
*855 FILLER_12_6
*856 FILLER_12_83
*857 FILLER_12_88
*858 FILLER_13_101
*859 FILLER_13_104
*860 FILLER_13_109
*861 FILLER_13_11
*862 FILLER_13_116
*863 FILLER_13_126
*864 FILLER_13_138
*865 FILLER_13_14
*866 FILLER_13_167
*867 FILLER_13_186
*868 FILLER_13_193
*869 FILLER_13_217
*870 FILLER_13_24
*871 FILLER_13_27
*872 FILLER_13_84
*873 FILLER_13_87
*874 FILLER_13_90
*875 FILLER_13_93
*876 FILLER_14_101
*877 FILLER_14_133
*878 FILLER_14_138
*879 FILLER_14_144
*880 FILLER_14_147
*881 FILLER_14_150
*882 FILLER_14_153
*883 FILLER_14_156
*884 FILLER_14_159
*885 FILLER_14_167
*886 FILLER_14_172
*887 FILLER_14_185
*888 FILLER_14_188
*889 FILLER_14_197
*890 FILLER_14_25
*891 FILLER_14_3
*892 FILLER_14_57
*893 FILLER_14_6
*894 FILLER_14_92
*895 FILLER_14_95
*896 FILLER_14_98
*897 FILLER_15_111
*898 FILLER_15_147
*899 FILLER_15_150
*900 FILLER_15_153
*901 FILLER_15_158
*902 FILLER_15_175
*903 FILLER_15_178
*904 FILLER_15_181
*905 FILLER_15_34
*906 FILLER_15_60
*907 FILLER_15_63
*908 FILLER_15_66
*909 FILLER_16_109
*910 FILLER_16_141
*911 FILLER_16_144
*912 FILLER_16_167
*913 FILLER_16_179
*914 FILLER_16_204
*915 FILLER_16_207
*916 FILLER_16_27
*917 FILLER_16_37
*918 FILLER_16_40
*919 FILLER_16_61
*920 FILLER_16_64
*921 FILLER_16_67
*922 FILLER_16_70
*923 FILLER_16_96
*924 FILLER_17_113
*925 FILLER_17_129
*926 FILLER_17_169
*927 FILLER_17_207
*928 FILLER_17_25
*929 FILLER_17_74
*930 FILLER_17_77
*931 FILLER_17_80
*932 FILLER_17_95
*933 FILLER_17_98
*934 FILLER_18_102
*935 FILLER_18_138
*936 FILLER_18_146
*937 FILLER_18_149
*938 FILLER_18_152
*939 FILLER_18_155
*940 FILLER_18_193
*941 FILLER_18_3
*942 FILLER_18_36
*943 FILLER_18_46
*944 FILLER_18_67
*945 FILLER_18_70
*946 FILLER_18_73
*947 FILLER_18_76
*948 FILLER_18_99
*949 FILLER_19_113
*950 FILLER_19_126
*951 FILLER_19_129
*952 FILLER_19_151
*953 FILLER_19_154
*954 FILLER_19_157
*955 FILLER_19_166
*956 FILLER_19_172
*957 FILLER_19_175
*958 FILLER_19_181
*959 FILLER_19_184
*960 FILLER_19_19
*961 FILLER_19_203
*962 FILLER_19_28
*963 FILLER_19_39
*964 FILLER_19_42
*965 FILLER_19_45
*966 FILLER_19_65
*967 FILLER_19_89
*968 FILLER_1_111
*969 FILLER_1_116
*970 FILLER_1_124
*971 FILLER_1_127
*972 FILLER_1_151
*973 FILLER_1_154
*974 FILLER_1_157
*975 FILLER_1_160
*976 FILLER_1_163
*977 FILLER_1_166
*978 FILLER_1_169
*979 FILLER_1_192
*980 FILLER_1_195
*981 FILLER_1_198
*982 FILLER_1_201
*983 FILLER_1_204
*984 FILLER_1_207
*985 FILLER_1_210
*986 FILLER_1_25
*987 FILLER_1_44
*988 FILLER_20_11
*989 FILLER_20_138
*990 FILLER_20_14
*991 FILLER_20_144
*992 FILLER_20_147
*993 FILLER_20_197
*994 FILLER_20_200
*995 FILLER_20_203
*996 FILLER_20_206
*997 FILLER_20_25
*998 FILLER_20_69
*999 FILLER_20_72
*1000 FILLER_20_75
*1001 FILLER_20_80
*1002 FILLER_20_83
*1003 FILLER_21_103
*1004 FILLER_21_116
*1005 FILLER_21_119
*1006 FILLER_21_122
*1007 FILLER_21_125
*1008 FILLER_21_131
*1009 FILLER_21_134
*1010 FILLER_21_137
*1011 FILLER_21_140
*1012 FILLER_21_16
*1013 FILLER_21_166
*1014 FILLER_21_195
*1015 FILLER_21_198
*1016 FILLER_21_201
*1017 FILLER_21_216
*1018 FILLER_21_3
*1019 FILLER_21_6
*1020 FILLER_21_70
*1021 FILLER_21_74
*1022 FILLER_21_79
*1023 FILLER_21_82
*1024 FILLER_22_109
*1025 FILLER_22_123
*1026 FILLER_22_137
*1027 FILLER_22_24
*1028 FILLER_22_27
*1029 FILLER_22_3
*1030 FILLER_22_53
*1031 FILLER_22_6
*1032 FILLER_23_109
*1033 FILLER_23_137
*1034 FILLER_23_152
*1035 FILLER_23_167
*1036 FILLER_23_204
*1037 FILLER_23_207
*1038 FILLER_23_210
*1039 FILLER_23_25
*1040 FILLER_23_28
*1041 FILLER_23_83
*1042 FILLER_24_108
*1043 FILLER_24_139
*1044 FILLER_24_141
*1045 FILLER_24_195
*1046 FILLER_24_200
*1047 FILLER_24_203
*1048 FILLER_24_206
*1049 FILLER_24_209
*1050 FILLER_24_27
*1051 FILLER_24_3
*1052 FILLER_24_36
*1053 FILLER_24_39
*1054 FILLER_24_49
*1055 FILLER_24_82
*1056 FILLER_24_85
*1057 FILLER_25_11
*1058 FILLER_25_113
*1059 FILLER_25_135
*1060 FILLER_25_158
*1061 FILLER_25_169
*1062 FILLER_25_180
*1063 FILLER_25_203
*1064 FILLER_25_206
*1065 FILLER_25_209
*1066 FILLER_25_49
*1067 FILLER_25_85
*1068 FILLER_26_110
*1069 FILLER_26_172
*1070 FILLER_26_19
*1071 FILLER_26_190
*1072 FILLER_26_195
*1073 FILLER_26_197
*1074 FILLER_26_200
*1075 FILLER_26_203
*1076 FILLER_26_206
*1077 FILLER_26_42
*1078 FILLER_26_65
*1079 FILLER_26_85
*1080 FILLER_26_97
*1081 FILLER_27_11
*1082 FILLER_27_113
*1083 FILLER_27_126
*1084 FILLER_27_139
*1085 FILLER_27_142
*1086 FILLER_27_149
*1087 FILLER_27_152
*1088 FILLER_27_155
*1089 FILLER_27_158
*1090 FILLER_27_169
*1091 FILLER_27_172
*1092 FILLER_27_179
*1093 FILLER_27_194
*1094 FILLER_27_30
*1095 FILLER_27_43
*1096 FILLER_27_57
*1097 FILLER_27_90
*1098 FILLER_28_125
*1099 FILLER_28_128
*1100 FILLER_28_131
*1101 FILLER_28_151
*1102 FILLER_28_154
*1103 FILLER_28_176
*1104 FILLER_28_192
*1105 FILLER_28_195
*1106 FILLER_28_203
*1107 FILLER_28_208
*1108 FILLER_28_3
*1109 FILLER_28_49
*1110 FILLER_28_85
*1111 FILLER_28_88
*1112 FILLER_28_96
*1113 FILLER_28_99
*1114 FILLER_29_106
*1115 FILLER_29_109
*1116 FILLER_29_11
*1117 FILLER_29_14
*1118 FILLER_29_153
*1119 FILLER_29_156
*1120 FILLER_29_176
*1121 FILLER_29_204
*1122 FILLER_29_216
*1123 FILLER_29_23
*1124 FILLER_29_34
*1125 FILLER_29_52
*1126 FILLER_29_57
*1127 FILLER_29_84
*1128 FILLER_29_87
*1129 FILLER_2_124
*1130 FILLER_2_127
*1131 FILLER_2_138
*1132 FILLER_2_144
*1133 FILLER_2_157
*1134 FILLER_2_160
*1135 FILLER_2_163
*1136 FILLER_2_166
*1137 FILLER_2_169
*1138 FILLER_2_172
*1139 FILLER_2_175
*1140 FILLER_2_192
*1141 FILLER_2_195
*1142 FILLER_2_205
*1143 FILLER_2_24
*1144 FILLER_2_27
*1145 FILLER_2_40
*1146 FILLER_2_83
*1147 FILLER_2_85
*1148 FILLER_30_100
*1149 FILLER_30_103
*1150 FILLER_30_112
*1151 FILLER_30_134
*1152 FILLER_30_141
*1153 FILLER_30_144
*1154 FILLER_30_153
*1155 FILLER_30_156
*1156 FILLER_30_180
*1157 FILLER_30_29
*1158 FILLER_30_3
*1159 FILLER_30_65
*1160 FILLER_30_81
*1161 FILLER_31_102
*1162 FILLER_31_131
*1163 FILLER_31_134
*1164 FILLER_31_137
*1165 FILLER_31_153
*1166 FILLER_31_156
*1167 FILLER_31_159
*1168 FILLER_31_162
*1169 FILLER_31_165
*1170 FILLER_31_169
*1171 FILLER_31_172
*1172 FILLER_31_207
*1173 FILLER_31_24
*1174 FILLER_31_3
*1175 FILLER_31_67
*1176 FILLER_31_81
*1177 FILLER_31_99
*1178 FILLER_32_128
*1179 FILLER_32_131
*1180 FILLER_32_148
*1181 FILLER_32_151
*1182 FILLER_32_154
*1183 FILLER_32_157
*1184 FILLER_32_160
*1185 FILLER_32_173
*1186 FILLER_32_176
*1187 FILLER_32_179
*1188 FILLER_32_182
*1189 FILLER_32_185
*1190 FILLER_32_192
*1191 FILLER_32_197
*1192 FILLER_32_206
*1193 FILLER_32_27
*1194 FILLER_32_41
*1195 FILLER_32_88
*1196 FILLER_32_97
*1197 FILLER_33_124
*1198 FILLER_33_127
*1199 FILLER_33_155
*1200 FILLER_33_158
*1201 FILLER_33_167
*1202 FILLER_33_196
*1203 FILLER_33_199
*1204 FILLER_33_202
*1205 FILLER_33_205
*1206 FILLER_33_208
*1207 FILLER_33_211
*1208 FILLER_33_54
*1209 FILLER_33_57
*1210 FILLER_34_130
*1211 FILLER_34_133
*1212 FILLER_34_149
*1213 FILLER_34_183
*1214 FILLER_34_186
*1215 FILLER_34_190
*1216 FILLER_34_193
*1217 FILLER_34_197
*1218 FILLER_34_200
*1219 FILLER_34_203
*1220 FILLER_34_206
*1221 FILLER_34_209
*1222 FILLER_34_24
*1223 FILLER_34_3
*1224 FILLER_34_52
*1225 FILLER_34_82
*1226 FILLER_34_85
*1227 FILLER_34_94
*1228 FILLER_35_101
*1229 FILLER_35_109
*1230 FILLER_35_113
*1231 FILLER_35_116
*1232 FILLER_35_121
*1233 FILLER_35_124
*1234 FILLER_35_127
*1235 FILLER_35_130
*1236 FILLER_35_133
*1237 FILLER_35_156
*1238 FILLER_35_162
*1239 FILLER_35_177
*1240 FILLER_35_180
*1241 FILLER_35_183
*1242 FILLER_35_186
*1243 FILLER_35_189
*1244 FILLER_35_192
*1245 FILLER_35_195
*1246 FILLER_35_198
*1247 FILLER_35_201
*1248 FILLER_35_204
*1249 FILLER_35_207
*1250 FILLER_35_210
*1251 FILLER_35_34
*1252 FILLER_35_42
*1253 FILLER_36_105
*1254 FILLER_36_110
*1255 FILLER_36_113
*1256 FILLER_36_118
*1257 FILLER_36_121
*1258 FILLER_36_126
*1259 FILLER_36_129
*1260 FILLER_36_134
*1261 FILLER_36_141
*1262 FILLER_36_144
*1263 FILLER_36_150
*1264 FILLER_36_153
*1265 FILLER_36_158
*1266 FILLER_36_161
*1267 FILLER_36_166
*1268 FILLER_36_169
*1269 FILLER_36_174
*1270 FILLER_36_177
*1271 FILLER_36_182
*1272 FILLER_36_185
*1273 FILLER_36_190
*1274 FILLER_36_197
*1275 FILLER_36_200
*1276 FILLER_36_206
*1277 FILLER_36_214
*1278 FILLER_36_27
*1279 FILLER_36_51
*1280 FILLER_36_98
*1281 FILLER_3_109
*1282 FILLER_3_131
*1283 FILLER_3_169
*1284 FILLER_3_181
*1285 FILLER_3_192
*1286 FILLER_3_195
*1287 FILLER_3_198
*1288 FILLER_3_201
*1289 FILLER_3_3
*1290 FILLER_3_34
*1291 FILLER_3_65
*1292 FILLER_3_68
*1293 FILLER_3_76
*1294 FILLER_3_79
*1295 FILLER_3_82
*1296 FILLER_3_85
*1297 FILLER_4_100
*1298 FILLER_4_138
*1299 FILLER_4_141
*1300 FILLER_4_158
*1301 FILLER_4_194
*1302 FILLER_4_197
*1303 FILLER_4_200
*1304 FILLER_4_217
*1305 FILLER_4_27
*1306 FILLER_4_37
*1307 FILLER_4_75
*1308 FILLER_4_78
*1309 FILLER_4_81
*1310 FILLER_4_85
*1311 FILLER_5_113
*1312 FILLER_5_116
*1313 FILLER_5_119
*1314 FILLER_5_140
*1315 FILLER_5_143
*1316 FILLER_5_167
*1317 FILLER_5_174
*1318 FILLER_5_177
*1319 FILLER_5_20
*1320 FILLER_5_202
*1321 FILLER_5_209
*1322 FILLER_5_55
*1323 FILLER_5_83
*1324 FILLER_6_114
*1325 FILLER_6_146
*1326 FILLER_6_149
*1327 FILLER_6_15
*1328 FILLER_6_152
*1329 FILLER_6_155
*1330 FILLER_6_158
*1331 FILLER_6_162
*1332 FILLER_6_165
*1333 FILLER_6_168
*1334 FILLER_6_172
*1335 FILLER_6_175
*1336 FILLER_6_178
*1337 FILLER_6_18
*1338 FILLER_6_181
*1339 FILLER_6_189
*1340 FILLER_6_195
*1341 FILLER_6_27
*1342 FILLER_6_29
*1343 FILLER_6_32
*1344 FILLER_6_42
*1345 FILLER_6_6
*1346 FILLER_6_67
*1347 FILLER_6_83
*1348 FILLER_6_85
*1349 FILLER_7_102
*1350 FILLER_7_116
*1351 FILLER_7_147
*1352 FILLER_7_157
*1353 FILLER_7_160
*1354 FILLER_7_190
*1355 FILLER_7_215
*1356 FILLER_7_3
*1357 FILLER_7_6
*1358 FILLER_7_65
*1359 FILLER_7_83
*1360 FILLER_7_86
*1361 FILLER_7_89
*1362 FILLER_7_92
*1363 FILLER_8_11
*1364 FILLER_8_113
*1365 FILLER_8_116
*1366 FILLER_8_141
*1367 FILLER_8_154
*1368 FILLER_8_157
*1369 FILLER_8_203
*1370 FILLER_8_25
*1371 FILLER_8_29
*1372 FILLER_8_67
*1373 FILLER_8_70
*1374 FILLER_8_85
*1375 FILLER_8_96
*1376 FILLER_8_99
*1377 FILLER_9_101
*1378 FILLER_9_104
*1379 FILLER_9_107
*1380 FILLER_9_110
*1381 FILLER_9_113
*1382 FILLER_9_116
*1383 FILLER_9_119
*1384 FILLER_9_122
*1385 FILLER_9_125
*1386 FILLER_9_128
*1387 FILLER_9_145
*1388 FILLER_9_185
*1389 FILLER_9_3
*1390 FILLER_9_31
*1391 FILLER_9_89
*1392 FILLER_9_92
*1393 FILLER_9_95
*1394 FILLER_9_98
*1395 PHY_EDGE_ROW_0_Left_37
*1396 PHY_EDGE_ROW_0_Right_0
*1397 PHY_EDGE_ROW_10_Left_47
*1398 PHY_EDGE_ROW_10_Right_10
*1399 PHY_EDGE_ROW_11_Left_48
*1400 PHY_EDGE_ROW_11_Right_11
*1401 PHY_EDGE_ROW_12_Left_49
*1402 PHY_EDGE_ROW_12_Right_12
*1403 PHY_EDGE_ROW_13_Left_50
*1404 PHY_EDGE_ROW_13_Right_13
*1405 PHY_EDGE_ROW_14_Left_51
*1406 PHY_EDGE_ROW_14_Right_14
*1407 PHY_EDGE_ROW_15_Left_52
*1408 PHY_EDGE_ROW_15_Right_15
*1409 PHY_EDGE_ROW_16_Left_53
*1410 PHY_EDGE_ROW_16_Right_16
*1411 PHY_EDGE_ROW_17_Left_54
*1412 PHY_EDGE_ROW_17_Right_17
*1413 PHY_EDGE_ROW_18_Left_55
*1414 PHY_EDGE_ROW_18_Right_18
*1415 PHY_EDGE_ROW_19_Left_56
*1416 PHY_EDGE_ROW_19_Right_19
*1417 PHY_EDGE_ROW_1_Left_38
*1418 PHY_EDGE_ROW_1_Right_1
*1419 PHY_EDGE_ROW_20_Left_57
*1420 PHY_EDGE_ROW_20_Right_20
*1421 PHY_EDGE_ROW_21_Left_58
*1422 PHY_EDGE_ROW_21_Right_21
*1423 PHY_EDGE_ROW_22_Left_59
*1424 PHY_EDGE_ROW_22_Right_22
*1425 PHY_EDGE_ROW_23_Left_60
*1426 PHY_EDGE_ROW_23_Right_23
*1427 PHY_EDGE_ROW_24_Left_61
*1428 PHY_EDGE_ROW_24_Right_24
*1429 PHY_EDGE_ROW_25_Left_62
*1430 PHY_EDGE_ROW_25_Right_25
*1431 PHY_EDGE_ROW_26_Left_63
*1432 PHY_EDGE_ROW_26_Right_26
*1433 PHY_EDGE_ROW_27_Left_64
*1434 PHY_EDGE_ROW_27_Right_27
*1435 PHY_EDGE_ROW_28_Left_65
*1436 PHY_EDGE_ROW_28_Right_28
*1437 PHY_EDGE_ROW_29_Left_66
*1438 PHY_EDGE_ROW_29_Right_29
*1439 PHY_EDGE_ROW_2_Left_39
*1440 PHY_EDGE_ROW_2_Right_2
*1441 PHY_EDGE_ROW_30_Left_67
*1442 PHY_EDGE_ROW_30_Right_30
*1443 PHY_EDGE_ROW_31_Left_68
*1444 PHY_EDGE_ROW_31_Right_31
*1445 PHY_EDGE_ROW_32_Left_69
*1446 PHY_EDGE_ROW_32_Right_32
*1447 PHY_EDGE_ROW_33_Left_70
*1448 PHY_EDGE_ROW_33_Right_33
*1449 PHY_EDGE_ROW_34_Left_71
*1450 PHY_EDGE_ROW_34_Right_34
*1451 PHY_EDGE_ROW_35_Left_72
*1452 PHY_EDGE_ROW_35_Right_35
*1453 PHY_EDGE_ROW_36_Left_73
*1454 PHY_EDGE_ROW_36_Right_36
*1455 PHY_EDGE_ROW_3_Left_40
*1456 PHY_EDGE_ROW_3_Right_3
*1457 PHY_EDGE_ROW_4_Left_41
*1458 PHY_EDGE_ROW_4_Right_4
*1459 PHY_EDGE_ROW_5_Left_42
*1460 PHY_EDGE_ROW_5_Right_5
*1461 PHY_EDGE_ROW_6_Left_43
*1462 PHY_EDGE_ROW_6_Right_6
*1463 PHY_EDGE_ROW_7_Left_44
*1464 PHY_EDGE_ROW_7_Right_7
*1465 PHY_EDGE_ROW_8_Left_45
*1466 PHY_EDGE_ROW_8_Right_8
*1467 PHY_EDGE_ROW_9_Left_46
*1468 PHY_EDGE_ROW_9_Right_9
*1469 TAP_TAPCELL_ROW_0_74
*1470 TAP_TAPCELL_ROW_0_75
*1471 TAP_TAPCELL_ROW_0_76
*1472 TAP_TAPCELL_ROW_0_77
*1473 TAP_TAPCELL_ROW_0_78
*1474 TAP_TAPCELL_ROW_0_79
*1475 TAP_TAPCELL_ROW_0_80
*1476 TAP_TAPCELL_ROW_10_112
*1477 TAP_TAPCELL_ROW_10_113
*1478 TAP_TAPCELL_ROW_10_114
*1479 TAP_TAPCELL_ROW_10_115
*1480 TAP_TAPCELL_ROW_11_116
*1481 TAP_TAPCELL_ROW_11_117
*1482 TAP_TAPCELL_ROW_11_118
*1483 TAP_TAPCELL_ROW_12_119
*1484 TAP_TAPCELL_ROW_12_120
*1485 TAP_TAPCELL_ROW_12_121
*1486 TAP_TAPCELL_ROW_12_122
*1487 TAP_TAPCELL_ROW_13_123
*1488 TAP_TAPCELL_ROW_13_124
*1489 TAP_TAPCELL_ROW_13_125
*1490 TAP_TAPCELL_ROW_14_126
*1491 TAP_TAPCELL_ROW_14_127
*1492 TAP_TAPCELL_ROW_14_128
*1493 TAP_TAPCELL_ROW_14_129
*1494 TAP_TAPCELL_ROW_15_130
*1495 TAP_TAPCELL_ROW_15_131
*1496 TAP_TAPCELL_ROW_15_132
*1497 TAP_TAPCELL_ROW_16_133
*1498 TAP_TAPCELL_ROW_16_134
*1499 TAP_TAPCELL_ROW_16_135
*1500 TAP_TAPCELL_ROW_16_136
*1501 TAP_TAPCELL_ROW_17_137
*1502 TAP_TAPCELL_ROW_17_138
*1503 TAP_TAPCELL_ROW_17_139
*1504 TAP_TAPCELL_ROW_18_140
*1505 TAP_TAPCELL_ROW_18_141
*1506 TAP_TAPCELL_ROW_18_142
*1507 TAP_TAPCELL_ROW_18_143
*1508 TAP_TAPCELL_ROW_19_144
*1509 TAP_TAPCELL_ROW_19_145
*1510 TAP_TAPCELL_ROW_19_146
*1511 TAP_TAPCELL_ROW_1_81
*1512 TAP_TAPCELL_ROW_1_82
*1513 TAP_TAPCELL_ROW_1_83
*1514 TAP_TAPCELL_ROW_20_147
*1515 TAP_TAPCELL_ROW_20_148
*1516 TAP_TAPCELL_ROW_20_149
*1517 TAP_TAPCELL_ROW_20_150
*1518 TAP_TAPCELL_ROW_21_151
*1519 TAP_TAPCELL_ROW_21_152
*1520 TAP_TAPCELL_ROW_21_153
*1521 TAP_TAPCELL_ROW_22_154
*1522 TAP_TAPCELL_ROW_22_155
*1523 TAP_TAPCELL_ROW_22_156
*1524 TAP_TAPCELL_ROW_22_157
*1525 TAP_TAPCELL_ROW_23_158
*1526 TAP_TAPCELL_ROW_23_159
*1527 TAP_TAPCELL_ROW_23_160
*1528 TAP_TAPCELL_ROW_24_161
*1529 TAP_TAPCELL_ROW_24_162
*1530 TAP_TAPCELL_ROW_24_163
*1531 TAP_TAPCELL_ROW_24_164
*1532 TAP_TAPCELL_ROW_25_165
*1533 TAP_TAPCELL_ROW_25_166
*1534 TAP_TAPCELL_ROW_25_167
*1535 TAP_TAPCELL_ROW_26_168
*1536 TAP_TAPCELL_ROW_26_169
*1537 TAP_TAPCELL_ROW_26_170
*1538 TAP_TAPCELL_ROW_26_171
*1539 TAP_TAPCELL_ROW_27_172
*1540 TAP_TAPCELL_ROW_27_173
*1541 TAP_TAPCELL_ROW_27_174
*1542 TAP_TAPCELL_ROW_28_175
*1543 TAP_TAPCELL_ROW_28_176
*1544 TAP_TAPCELL_ROW_28_177
*1545 TAP_TAPCELL_ROW_28_178
*1546 TAP_TAPCELL_ROW_29_179
*1547 TAP_TAPCELL_ROW_29_180
*1548 TAP_TAPCELL_ROW_29_181
*1549 TAP_TAPCELL_ROW_2_84
*1550 TAP_TAPCELL_ROW_2_85
*1551 TAP_TAPCELL_ROW_2_86
*1552 TAP_TAPCELL_ROW_2_87
*1553 TAP_TAPCELL_ROW_30_182
*1554 TAP_TAPCELL_ROW_30_183
*1555 TAP_TAPCELL_ROW_30_184
*1556 TAP_TAPCELL_ROW_30_185
*1557 TAP_TAPCELL_ROW_31_186
*1558 TAP_TAPCELL_ROW_31_187
*1559 TAP_TAPCELL_ROW_31_188
*1560 TAP_TAPCELL_ROW_32_189
*1561 TAP_TAPCELL_ROW_32_190
*1562 TAP_TAPCELL_ROW_32_191
*1563 TAP_TAPCELL_ROW_32_192
*1564 TAP_TAPCELL_ROW_33_193
*1565 TAP_TAPCELL_ROW_33_194
*1566 TAP_TAPCELL_ROW_33_195
*1567 TAP_TAPCELL_ROW_34_196
*1568 TAP_TAPCELL_ROW_34_197
*1569 TAP_TAPCELL_ROW_34_198
*1570 TAP_TAPCELL_ROW_34_199
*1571 TAP_TAPCELL_ROW_35_200
*1572 TAP_TAPCELL_ROW_35_201
*1573 TAP_TAPCELL_ROW_35_202
*1574 TAP_TAPCELL_ROW_36_203
*1575 TAP_TAPCELL_ROW_36_204
*1576 TAP_TAPCELL_ROW_36_205
*1577 TAP_TAPCELL_ROW_36_206
*1578 TAP_TAPCELL_ROW_36_207
*1579 TAP_TAPCELL_ROW_36_208
*1580 TAP_TAPCELL_ROW_36_209
*1581 TAP_TAPCELL_ROW_3_88
*1582 TAP_TAPCELL_ROW_3_89
*1583 TAP_TAPCELL_ROW_3_90
*1584 TAP_TAPCELL_ROW_4_91
*1585 TAP_TAPCELL_ROW_4_92
*1586 TAP_TAPCELL_ROW_4_93
*1587 TAP_TAPCELL_ROW_4_94
*1588 TAP_TAPCELL_ROW_5_95
*1589 TAP_TAPCELL_ROW_5_96
*1590 TAP_TAPCELL_ROW_5_97
*1591 TAP_TAPCELL_ROW_6_100
*1592 TAP_TAPCELL_ROW_6_101
*1593 TAP_TAPCELL_ROW_6_98
*1594 TAP_TAPCELL_ROW_6_99
*1595 TAP_TAPCELL_ROW_7_102
*1596 TAP_TAPCELL_ROW_7_103
*1597 TAP_TAPCELL_ROW_7_104
*1598 TAP_TAPCELL_ROW_8_105
*1599 TAP_TAPCELL_ROW_8_106
*1600 TAP_TAPCELL_ROW_8_107
*1601 TAP_TAPCELL_ROW_8_108
*1602 TAP_TAPCELL_ROW_9_109
*1603 TAP_TAPCELL_ROW_9_110
*1604 TAP_TAPCELL_ROW_9_111
*1605 _0404_
*1606 _0405_
*1607 _0406_
*1608 _0407_
*1609 _0408_
*1610 _0409_
*1611 _0410_
*1612 _0411_
*1613 _0412_
*1614 _0413_
*1615 _0414_
*1616 _0415_
*1617 _0416_
*1618 _0417_
*1619 _0418_
*1620 _0419_
*1621 _0420_
*1622 _0421_
*1623 _0422_
*1624 _0423_
*1625 _0424_
*1626 _0425_
*1627 _0426_
*1628 _0427_
*1629 _0428_
*1630 _0429_
*1631 _0430_
*1632 _0431_
*1633 _0432_
*1634 _0433_
*1635 _0434_
*1636 _0435_
*1637 _0436_
*1638 _0437_
*1639 _0438_
*1640 _0439_
*1641 _0440_
*1642 _0441_
*1643 _0442_
*1644 _0443_
*1645 _0444_
*1646 _0445_
*1647 _0446_
*1648 _0447_
*1649 _0448_
*1650 _0449_
*1651 _0450_
*1652 _0451_
*1653 _0452_
*1654 _0453_
*1655 _0454_
*1656 _0455_
*1657 _0456_
*1658 _0457_
*1659 _0458_
*1660 _0459_
*1661 _0460_
*1662 _0461_
*1663 _0462_
*1664 _0463_
*1665 _0464_
*1666 _0465_
*1667 _0466_
*1668 _0467_
*1669 _0468_
*1670 _0469_
*1671 _0470_
*1672 _0471_
*1673 _0472_
*1674 _0473_
*1675 _0474_
*1676 _0475_
*1677 _0476_
*1678 _0477_
*1679 _0478_
*1680 _0479_
*1681 _0480_
*1682 _0481_
*1683 _0482_
*1684 _0483_
*1685 _0484_
*1686 _0485_
*1687 _0486_
*1688 _0487_
*1689 _0488_
*1690 _0489_
*1691 _0490_
*1692 _0491_
*1693 _0492_
*1694 _0493_
*1695 _0494_
*1696 _0495_
*1697 _0496_
*1698 _0497_
*1699 _0498_
*1700 _0499_
*1701 _0500_
*1702 _0501_
*1703 _0502_
*1704 _0503_
*1705 _0504_
*1706 _0505_
*1707 _0506_
*1708 _0507_
*1709 _0508_
*1710 _0509_
*1711 _0510_
*1712 _0511_
*1713 _0512_
*1714 _0513_
*1715 _0514_
*1716 _0515_
*1717 _0516_
*1718 _0517_
*1719 _0518_
*1720 _0519_
*1721 _0520_
*1722 _0521_
*1723 _0522_
*1724 _0523_
*1725 _0524_
*1726 _0525_
*1727 _0526_
*1728 _0527_
*1729 _0528_
*1730 _0529_
*1731 _0530_
*1732 _0531_
*1733 _0532_
*1734 _0533_
*1735 _0534_
*1736 _0535_
*1737 _0536_
*1738 _0537_
*1739 _0538_
*1740 _0539_
*1741 _0540_
*1742 _0541_
*1743 _0542_
*1744 _0543_
*1745 _0544_
*1746 _0545_
*1747 _0546_
*1748 _0547_
*1749 _0548_
*1750 _0549_
*1751 _0550_
*1752 _0551_
*1753 _0552_
*1754 _0553_
*1755 _0554_
*1756 _0555_
*1757 _0556_
*1758 _0557_
*1759 _0558_
*1760 _0559_
*1761 _0560_
*1762 _0561_
*1763 _0562_
*1764 _0563_
*1765 _0564_
*1766 _0565_
*1767 _0566_
*1768 _0567_
*1769 _0568_
*1770 _0569_
*1771 _0570_
*1772 _0571_
*1773 _0572_
*1774 _0573_
*1775 _0574_
*1776 _0575_
*1777 _0576_
*1778 _0577_
*1779 _0578_
*1780 _0579_
*1781 _0580_
*1782 _0581_
*1783 _0582_
*1784 _0583_
*1785 _0584_
*1786 _0585_
*1787 _0586_
*1788 _0587_
*1789 _0588_
*1790 _0589_
*1791 _0590_
*1792 _0591_
*1793 _0592_
*1794 _0593_
*1795 _0594_
*1796 _0595_
*1797 _0596_
*1798 _0597_
*1799 _0598_
*1800 _0599_
*1801 _0600_
*1802 _0601_
*1803 _0602_
*1804 _0603_
*1805 _0604_
*1806 _0605_
*1807 _0606_
*1808 _0607_
*1809 _0608_
*1810 _0609_
*1811 _0610_
*1812 _0611_
*1813 _0612_
*1814 _0613_
*1815 _0614_
*1816 _0615_
*1817 _0616_
*1818 _0617_
*1819 _0618_
*1820 _0619_
*1821 _0620_
*1822 _0621_
*1823 _0622_
*1824 _0623_
*1825 _0624_
*1826 _0625_
*1827 _0626_
*1828 _0627_
*1829 _0628_
*1830 _0629_
*1831 _0630_
*1832 _0631_
*1833 _0632_
*1834 _0633_
*1835 _0634_
*1836 _0635_
*1837 _0636_
*1838 _0637_
*1839 _0638_
*1840 _0639_
*1841 _0640_
*1842 _0641_
*1843 _0642_
*1844 _0643_
*1845 _0644_
*1846 _0645_
*1847 _0646_
*1848 _0647_
*1849 _0648_
*1850 _0649_
*1851 _0650_
*1852 _0651_
*1853 _0652_
*1854 _0653_
*1855 _0654_
*1856 _0655_
*1857 _0656_
*1858 _0657_
*1859 _0658_
*1860 _0659_
*1861 _0660_
*1862 _0661_
*1863 _0662_
*1864 _0663_
*1865 _0664_
*1866 _0665_
*1867 _0666_
*1868 _0667_
*1869 _0668_
*1870 _0669_
*1871 _0670_
*1872 _0671_
*1873 _0672_
*1874 _0673_
*1875 _0674_
*1876 _0675_
*1877 _0676_
*1878 _0677_
*1879 _0678_
*1880 _0679_
*1881 _0680_
*1882 _0681_
*1883 _0682_
*1884 _0683_
*1885 _0684_
*1886 _0685_
*1887 _0686_
*1888 _0687_
*1889 _0688_
*1890 _0689_
*1891 _0690_
*1892 _0691_
*1893 _0692_
*1894 _0693_
*1895 _0694_
*1896 _0695_
*1897 _0696_
*1898 _0697_
*1899 _0698_
*1900 _0699_
*1901 _0700_
*1902 _0701_
*1903 _0702_
*1904 _0703_
*1905 _0704_
*1906 _0705_
*1907 _0706_
*1908 _0707_
*1909 _0708_
*1910 _0709_
*1911 _0710_
*1912 _0711_
*1913 _0712_
*1914 _0713_
*1915 _0714_
*1916 _0715_
*1917 _0716_
*1918 _0717_
*1919 _0718_
*1920 _0719_
*1921 _0720_
*1922 _0721_
*1923 _0722_
*1924 _0723_
*1925 _0724_
*1926 _0725_
*1927 _0726_
*1928 _0727_
*1929 _0728_
*1930 _0729_
*1931 _0730_
*1932 _0731_
*1933 _0732_
*1934 _0733_
*1935 _0734_
*1936 _0735_
*1937 _0736_
*1938 _0737_
*1939 _0738_
*1940 _0739_
*1941 _0740_
*1942 _0741_
*1943 _0742_
*1944 _0743_
*1945 _0744_
*1946 _0745_
*1947 _0746_
*1948 _0747_
*1949 _0748_
*1950 _0749_
*1951 _0750_
*1952 _0751_
*1953 _0752_
*1954 _0753_
*1955 _0754_
*1956 _0755_
*1957 _0756_
*1958 _0757_
*1959 _0758_
*1960 _0759_
*1961 _0760_
*1962 _0761_
*1963 _0762_
*1964 _0763_
*1965 _0764_
*1966 _0765_
*1967 _0766_
*1968 _0767_
*1969 _0768_
*1970 _0769_
*1971 _0770_
*1972 _0771_
*1973 _0772_
*1974 _0773_
*1975 _0774_
*1976 _0775_
*1977 _0776_
*1978 _0777_
*1979 _0778_
*1980 _0779_
*1981 _0780_
*1982 _0781_
*1983 _0782_
*1984 _0783_
*1985 _0784_
*1986 _0785_
*1987 _0786_
*1988 _0787_
*1989 _0788_
*1990 _0789_
*1991 _0790_
*1992 _0791_
*1993 _0792_
*1994 _0793_
*1995 _0794_
*1996 _0795_
*1997 _0796_
*1998 _0797_
*1999 _0798_
*2000 _0799_
*2001 _0800_
*2002 _0801_
*2003 _0802_
*2004 _0803_
*2005 _0804_
*2006 _0805_
*2007 _0806_
*2008 _0807_
*2009 _0808_
*2010 _0809_
*2011 _0810_
*2012 _0811_
*2013 _0812_
*2014 _0813_
*2015 _0814_
*2016 _0815_
*2017 _0816_
*2018 _0817_
*2019 _0818_
*2020 _0819_
*2021 _0820_
*2022 _0821_
*2023 _0822_
*2024 _0823_
*2025 _0824_
*2026 _0825_
*2027 _0826_
*2028 _0827_
*2029 _0828_
*2030 _0829_
*2031 _0830_
*2032 _0831_
*2033 _0832_
*2034 _0833_
*2035 _0834_
*2036 _0835_
*2037 _0836_
*2038 _0837_
*2039 _0838_
*2040 _0839_
*2041 _0840_
*2042 _0841_
*2043 _0842_
*2044 _0843_
*2045 _0844_
*2046 _0845_
*2047 _0846_
*2048 _0847_
*2049 _0848_
*2050 _0849_
*2051 _0850_
*2052 _0851_
*2053 _0852_
*2054 _0853_
*2055 _0854_
*2056 _0855_
*2057 _0856_
*2058 _0857_
*2059 _0858_
*2060 _0859_
*2061 _0860_
*2062 _0861_
*2063 _0862_
*2064 _0863_
*2065 _0864_
*2066 _0865_
*2067 _0866_
*2068 _0867_
*2069 _0868_
*2070 _0869_
*2071 _0870_
*2072 _0871_
*2073 _0872_
*2074 _0873_
*2075 _0874_
*2076 _0875_
*2077 _0876_
*2078 _0877_
*2079 _0878_
*2080 _0879_
*2081 _0880_
*2082 _0881_
*2083 _0882_
*2084 _0883_
*2085 _0884_
*2086 _0885_
*2087 _0886_
*2088 _0887_
*2089 _0888_
*2090 _0889_
*2091 _0890_
*2092 _0891_
*2093 _0892_
*2094 _0893_
*2095 _0894_
*2096 _0895_
*2097 _0896_
*2098 _0897_
*2099 _0898_
*2100 _0899_
*2101 _0900_
*2102 _0901_
*2103 _0902_
*2104 _0903_
*2105 _0904_
*2106 _0905_
*2107 _0906_
*2108 _0907_
*2109 _0908_
*2110 _0909_
*2111 _0910_
*2112 _0911_
*2113 _0912_
*2114 _0913_
*2115 _0914_
*2116 _0915_
*2117 _0916_
*2118 _0917_
*2119 _0918_
*2120 _0919_
*2121 _0920_
*2122 _0921_
*2123 clkbuf_0_clk
*2124 clkbuf_4_0_0_clk
*2125 clkbuf_4_10_0_clk
*2126 clkbuf_4_11_0_clk
*2127 clkbuf_4_12_0_clk
*2128 clkbuf_4_13_0_clk
*2129 clkbuf_4_14_0_clk
*2130 clkbuf_4_15_0_clk
*2131 clkbuf_4_1_0_clk
*2132 clkbuf_4_2_0_clk
*2133 clkbuf_4_3_0_clk
*2134 clkbuf_4_4_0_clk
*2135 clkbuf_4_5_0_clk
*2136 clkbuf_4_6_0_clk
*2137 clkbuf_4_7_0_clk
*2138 clkbuf_4_8_0_clk
*2139 clkbuf_4_9_0_clk
*2140 clkload0
*2141 clkload1
*2142 clkload10
*2143 clkload11
*2144 clkload12
*2145 clkload13
*2146 clkload2
*2147 clkload3
*2148 clkload4
*2149 clkload5
*2150 clkload6
*2151 clkload7
*2152 clkload8
*2153 clkload9
*2154 fanout35
*2155 fanout41
*2156 fanout43
*2157 fanout44
*2158 fanout46
*2159 fanout48
*2160 fanout50
*2161 fanout51
*2162 fanout52
*2163 fanout54
*2164 fanout56
*2165 fanout58
*2166 fanout60
*2167 fanout62
*2168 fanout63
*2169 hold156
*2170 hold157
*2171 hold158
*2172 hold159
*2173 hold160
*2174 hold161
*2175 hold162
*2176 hold163
*2177 hold164
*2178 hold165
*2179 hold166
*2180 hold167
*2181 hold168
*2182 hold169
*2183 hold170
*2184 hold171
*2185 hold172
*2186 hold173
*2187 hold174
*2188 hold175
*2189 hold176
*2190 hold177
*2191 hold178
*2192 hold179
*2193 hold180
*2194 hold181
*2195 hold182
*2196 hold183
*2197 hold184
*2198 hold185
*2199 hold186
*2200 hold187
*2201 hold188
*2202 hold189
*2203 hold190
*2204 hold191
*2205 hold192
*2206 hold193
*2207 hold194
*2208 hold195
*2209 hold196
*2210 hold197
*2211 hold198
*2212 hold199
*2213 hold200
*2214 hold201
*2215 hold202
*2216 hold203
*2217 hold204
*2218 hold205
*2219 hold206
*2220 hold207
*2221 hold208
*2222 hold209
*2223 hold210
*2224 hold211
*2225 hold212
*2226 hold213
*2227 hold214
*2228 hold215
*2229 hold216
*2230 hold217
*2231 hold218
*2232 hold219
*2233 hold220
*2234 hold221
*2235 hold222
*2236 hold223
*2237 hold224
*2238 hold225
*2239 hold226
*2240 hold227
*2241 hold228
*2242 hold229
*2243 hold230
*2244 hold231
*2245 hold232
*2246 hold233
*2247 hold234
*2248 hold235
*2249 hold236
*2250 hold237
*2251 hold238
*2252 hold239
*2253 input1
*2254 load_slew42
*2255 load_slew45
*2256 load_slew47
*2257 load_slew49
*2258 load_slew53
*2259 load_slew55
*2260 load_slew57
*2261 load_slew59
*2262 load_slew61
*2263 max_cap36
*2264 max_cap37
*2265 max_cap38
*2266 max_cap40
*2267 output10
*2268 output11
*2269 output12
*2270 output13
*2271 output14
*2272 output15
*2273 output16
*2274 output17
*2275 output18
*2276 output19
*2277 output2
*2278 output20
*2279 output21
*2280 output22
*2281 output23
*2282 output24
*2283 output25
*2284 output26
*2285 output27
*2286 output28
*2287 output29
*2288 output3
*2289 output30
*2290 output31
*2291 output32
*2292 output33
*2293 output34
*2294 output4
*2295 output5
*2296 output6
*2297 output7
*2298 output8
*2299 output9
*2300 soc_top
*2301 soc_top_100
*2302 soc_top_101
*2303 soc_top_102
*2304 soc_top_103
*2305 soc_top_104
*2306 soc_top_105
*2307 soc_top_106
*2308 soc_top_107
*2309 soc_top_108
*2310 soc_top_109
*2311 soc_top_110
*2312 soc_top_111
*2313 soc_top_112
*2314 soc_top_113
*2315 soc_top_114
*2316 soc_top_115
*2317 soc_top_116
*2318 soc_top_117
*2319 soc_top_118
*2320 soc_top_119
*2321 soc_top_120
*2322 soc_top_121
*2323 soc_top_122
*2324 soc_top_123
*2325 soc_top_124
*2326 soc_top_125
*2327 soc_top_126
*2328 soc_top_127
*2329 soc_top_128
*2330 soc_top_129
*2331 soc_top_130
*2332 soc_top_131
*2333 soc_top_132
*2334 soc_top_133
*2335 soc_top_134
*2336 soc_top_135
*2337 soc_top_136
*2338 soc_top_137
*2339 soc_top_138
*2340 soc_top_139
*2341 soc_top_140
*2342 soc_top_141
*2343 soc_top_142
*2344 soc_top_143
*2345 soc_top_144
*2346 soc_top_145
*2347 soc_top_146
*2348 soc_top_147
*2349 soc_top_148
*2350 soc_top_149
*2351 soc_top_150
*2352 soc_top_151
*2353 soc_top_152
*2354 soc_top_153
*2355 soc_top_154
*2356 soc_top_155
*2357 soc_top_64
*2358 soc_top_65
*2359 soc_top_66
*2360 soc_top_67
*2361 soc_top_68
*2362 soc_top_69
*2363 soc_top_70
*2364 soc_top_71
*2365 soc_top_72
*2366 soc_top_73
*2367 soc_top_74
*2368 soc_top_75
*2369 soc_top_76
*2370 soc_top_77
*2371 soc_top_78
*2372 soc_top_79
*2373 soc_top_80
*2374 soc_top_81
*2375 soc_top_82
*2376 soc_top_83
*2377 soc_top_84
*2378 soc_top_85
*2379 soc_top_86
*2380 soc_top_87
*2381 soc_top_88
*2382 soc_top_89
*2383 soc_top_90
*2384 soc_top_91
*2385 soc_top_92
*2386 soc_top_93
*2387 soc_top_94
*2388 soc_top_95
*2389 soc_top_96
*2390 soc_top_97
*2391 soc_top_98
*2392 soc_top_99
*2393 wire39

*PORTS
Hsync O
Vsync O
blue[0] O
blue[1] O
blue[2] O
blue[3] O
blue[4] O
blue[5] O
blue[6] O
blue[7] O
clk I
cpu_stall O
display_enable O
green[0] O
green[1] O
green[2] O
green[3] O
green[4] O
green[5] O
green[6] O
green[7] O
mem_addr[0] O
mem_addr[10] O
mem_addr[11] O
mem_addr[12] O
mem_addr[13] O
mem_addr[14] O
mem_addr[15] O
mem_addr[16] O
mem_addr[17] O
mem_addr[18] O
mem_addr[19] O
mem_addr[1] O
mem_addr[20] O
mem_addr[21] O
mem_addr[22] O
mem_addr[23] O
mem_addr[24] O
mem_addr[25] O
mem_addr[26] O
mem_addr[27] O
mem_addr[28] O
mem_addr[29] O
mem_addr[2] O
mem_addr[30] O
mem_addr[31] O
mem_addr[3] O
mem_addr[4] O
mem_addr[5] O
mem_addr[6] O
mem_addr[7] O
mem_addr[8] O
mem_addr[9] O
mem_read O
mem_wdata[0] O
mem_wdata[10] O
mem_wdata[11] O
mem_wdata[12] O
mem_wdata[13] O
mem_wdata[14] O
mem_wdata[15] O
mem_wdata[16] O
mem_wdata[17] O
mem_wdata[18] O
mem_wdata[19] O
mem_wdata[1] O
mem_wdata[20] O
mem_wdata[21] O
mem_wdata[22] O
mem_wdata[23] O
mem_wdata[24] O
mem_wdata[25] O
mem_wdata[26] O
mem_wdata[27] O
mem_wdata[28] O
mem_wdata[29] O
mem_wdata[2] O
mem_wdata[30] O
mem_wdata[31] O
mem_wdata[3] O
mem_wdata[4] O
mem_wdata[5] O
mem_wdata[6] O
mem_wdata[7] O
mem_wdata[8] O
mem_wdata[9] O
mem_write O
pcRegister[0] O
pcRegister[10] O
pcRegister[11] O
pcRegister[12] O
pcRegister[13] O
pcRegister[14] O
pcRegister[15] O
pcRegister[16] O
pcRegister[17] O
pcRegister[18] O
pcRegister[19] O
pcRegister[1] O
pcRegister[20] O
pcRegister[21] O
pcRegister[22] O
pcRegister[23] O
pcRegister[24] O
pcRegister[25] O
pcRegister[26] O
pcRegister[27] O
pcRegister[28] O
pcRegister[29] O
pcRegister[2] O
pcRegister[30] O
pcRegister[31] O
pcRegister[3] O
pcRegister[4] O
pcRegister[5] O
pcRegister[6] O
pcRegister[7] O
pcRegister[8] O
pcRegister[9] O
red[0] O
red[1] O
red[2] O
red[3] O
red[4] O
red[5] O
red[6] O
red[7] O
reset I

*D_NET *1 0.00289265
*CONN
*P Hsync O
*I *2277:X O *D sky130_fd_sc_hd__clkdlybuf4s25_1
*CAP
1 Hsync 0.000724441
2 *2277:X 0.000724441
3 Hsync Vsync 0.000853868
4 Hsync *1922:B 5.54182e-05
5 Hsync *2122:SET_B 8.53011e-05
6 Hsync *2184:A 2.68464e-05
7 Hsync *2288:A 0.000422332
*RES
1 *2277:X Hsync 20.4679 
*END

*D_NET *4 0.00201479
*CONN
*P Vsync O
*I *2288:X O *D sky130_fd_sc_hd__clkdlybuf4s25_1
*CAP
1 Vsync 0.000565224
2 *2288:X 0.000565224
3 Vsync *2184:A 3.04704e-05
4 Hsync Vsync 0.000853868
*RES
1 *2288:X Vsync 15.4527 
*END

*D_NET *5 0.00156817
*CONN
*P blue[0] O
*I *2300:LO O *D sky130_fd_sc_hd__conb_1
*CAP
1 blue[0] 0.000739142
2 *2300:LO 0.000739142
3 blue[0] blue[1] 8.98873e-05
*RES
1 *2300:LO blue[0] 6.45827 
*END

*D_NET *6 0.00145476
*CONN
*P blue[1] O
*I *2357:LO O *D sky130_fd_sc_hd__conb_1
*CAP
1 blue[1] 0.000637491
2 *2357:LO 0.000637491
3 blue[1] blue[2] 8.98873e-05
4 blue[0] blue[1] 8.98873e-05
*RES
1 *2357:LO blue[1] 6.45827 
*END

*D_NET *7 0.00145476
*CONN
*P blue[2] O
*I *2358:LO O *D sky130_fd_sc_hd__conb_1
*CAP
1 blue[2] 0.000637491
2 *2358:LO 0.000637491
3 blue[2] blue[3] 8.98873e-05
4 blue[1] blue[2] 8.98873e-05
*RES
1 *2358:LO blue[2] 6.45827 
*END

*D_NET *8 0.00145476
*CONN
*P blue[3] O
*I *2359:LO O *D sky130_fd_sc_hd__conb_1
*CAP
1 blue[3] 0.000637491
2 *2359:LO 0.000637491
3 blue[3] blue[4] 8.98873e-05
4 blue[2] blue[3] 8.98873e-05
*RES
1 *2359:LO blue[3] 6.45827 
*END

*D_NET *9 0.00145476
*CONN
*P blue[4] O
*I *2360:LO O *D sky130_fd_sc_hd__conb_1
*CAP
1 blue[4] 0.000637491
2 *2360:LO 0.000637491
3 blue[4] blue[5] 8.98873e-05
4 blue[3] blue[4] 8.98873e-05
*RES
1 *2360:LO blue[4] 6.45827 
*END

*D_NET *10 0.00145419
*CONN
*P blue[5] O
*I *2361:LO O *D sky130_fd_sc_hd__conb_1
*CAP
1 blue[5] 0.000641235
2 *2361:LO 0.000641235
3 blue[5] blue[6] 8.18377e-05
4 blue[4] blue[5] 8.98873e-05
*RES
1 *2361:LO blue[5] 6.45827 
*END

*D_NET *11 0.0018329
*CONN
*P blue[6] O
*I *2362:LO O *D sky130_fd_sc_hd__conb_1
*CAP
1 blue[6] 0.000872599
2 *2362:LO 0.000872599
3 blue[6] blue[7] 5.86662e-06
4 blue[5] blue[6] 8.18377e-05
*RES
1 *2362:LO blue[6] 7.306 
*END

*D_NET *12 0.00213232
*CONN
*P blue[7] O
*I *2363:LO O *D sky130_fd_sc_hd__conb_1
*CAP
1 blue[7] 0.00106323
2 *2363:LO 0.00106323
3 blue[6] blue[7] 5.86662e-06
*RES
1 *2363:LO blue[7] 6.45827 
*END

*D_NET *13 0.0112093
*CONN
*P clk I
*I *2123:A I *D sky130_fd_sc_hd__clkbuf_16
*CAP
1 clk 0.00386773
2 *2123:A 9.86604e-05
3 *13:14 0.000720129
4 *13:12 0.00448919
5 *2123:A *1798:B1 4.43344e-05
6 *13:12 mem_addr[0] 0.00012003
7 *13:12 mem_addr[2] 0
8 *13:12 *1612:A 0
9 *13:12 *1734:B 1.61212e-05
10 *13:12 *1737:B 0
11 *13:12 *1739:B 9.1762e-05
12 *13:12 *1766:B1_N 0
13 *13:12 *1796:C 0
14 *13:12 *1797:C1 0.00023485
15 *13:12 *1944:A 0
16 *13:12 *2055:D 0.000178722
17 *13:12 *2055:RESET_B 0.000115836
18 *13:12 *2056:D 3.91353e-05
19 *13:12 *2082:SET_B 3.8947e-05
20 *13:12 *2094:SET_B 0.000127682
21 *13:12 *2096:CLK 0
22 *13:12 *2253:A 8.16947e-05
23 *13:12 *327:10 0.000191304
24 *13:12 *535:154 0
25 *13:12 *552:29 0.000142323
26 *13:12 *553:8 0
27 *13:12 *692:59 5.70202e-05
28 *13:12 *692:78 0.000317805
29 *13:12 *718:10 0
30 *13:14 *1620:A 5.71649e-05
31 *13:14 *1620:B 7.83157e-05
32 *13:14 *1798:A2 5.90495e-05
33 *13:14 *1798:B1 1.36995e-05
34 *13:14 *718:10 2.78248e-05
*RES
1 clk *13:12 41.7141 
2 *13:12 *13:14 8.9025 
3 *13:14 *2123:A 3.5275 
*END

*D_NET *14 0.00131054
*CONN
*P cpu_stall O
*I *2294:X O *D sky130_fd_sc_hd__clkdlybuf4s25_1
*CAP
1 cpu_stall 0.000655268
2 *2294:X 0.000655268
3 cpu_stall *447:34 0
*RES
1 *2294:X cpu_stall 9.10003 
*END

*D_NET *15 0.00131079
*CONN
*P display_enable O
*I *2364:LO O *D sky130_fd_sc_hd__conb_1
*CAP
1 display_enable 0.000655394
2 *2364:LO 0.000655394
3 display_enable *1985:A 0
*RES
1 *2364:LO display_enable 9.35503 
*END

*D_NET *16 0.00163902
*CONN
*P green[0] O
*I *2365:LO O *D sky130_fd_sc_hd__conb_1
*CAP
1 green[0] 0.000752679
2 *2365:LO 0.000752679
3 green[0] green[1] 8.62371e-05
4 green[0] red[3] 4.01868e-05
5 green[0] red[6] 6.15576e-06
6 green[0] *2045:D 1.08315e-06
*RES
1 *2365:LO green[0] 6.51653 
*END

*D_NET *17 0.00184105
*CONN
*P green[1] O
*I *2366:LO O *D sky130_fd_sc_hd__conb_1
*CAP
1 green[1] 0.000677643
2 *2366:LO 0.000677643
3 green[1] green[2] 8.77344e-05
4 green[1] red[3] 2.53327e-05
5 green[1] red[6] 0.000286457
6 green[0] green[1] 8.62371e-05
*RES
1 *2366:LO green[1] 6.45827 
*END

*D_NET *18 0.00147448
*CONN
*P green[2] O
*I *2367:LO O *D sky130_fd_sc_hd__conb_1
*CAP
1 green[2] 0.00064843
2 *2367:LO 0.00064843
3 green[2] green[3] 8.98873e-05
4 green[1] green[2] 8.77344e-05
*RES
1 *2367:LO green[2] 6.45827 
*END

*D_NET *19 0.00146455
*CONN
*P green[3] O
*I *2368:LO O *D sky130_fd_sc_hd__conb_1
*CAP
1 green[3] 0.00064239
2 *2368:LO 0.00064239
3 green[3] green[4] 8.98873e-05
4 green[2] green[3] 8.98873e-05
*RES
1 *2368:LO green[3] 6.45827 
*END

*D_NET *20 0.00146455
*CONN
*P green[4] O
*I *2369:LO O *D sky130_fd_sc_hd__conb_1
*CAP
1 green[4] 0.00064239
2 *2369:LO 0.00064239
3 green[4] green[5] 8.98873e-05
4 green[3] green[4] 8.98873e-05
*RES
1 *2369:LO green[4] 6.45827 
*END

*D_NET *21 0.00145806
*CONN
*P green[5] O
*I *2370:LO O *D sky130_fd_sc_hd__conb_1
*CAP
1 green[5] 0.000684086
2 *2370:LO 0.000684086
3 green[4] green[5] 8.98873e-05
*RES
1 *2370:LO green[5] 6.45827 
*END

*D_NET *22 0.00152768
*CONN
*P green[6] O
*I *2371:LO O *D sky130_fd_sc_hd__conb_1
*CAP
1 green[6] 0.000763842
2 *2371:LO 0.000763842
3 green[6] green[7] 0
*RES
1 *2371:LO green[6] 16.4613 
*END

*D_NET *23 0.00117182
*CONN
*P green[7] O
*I *2372:LO O *D sky130_fd_sc_hd__conb_1
*CAP
1 green[7] 0.00058591
2 *2372:LO 0.00058591
3 green[6] green[7] 0
*RES
1 *2372:LO green[7] 14.0796 
*END

*D_NET *24 0.0015041
*CONN
*P mem_addr[0] O
*I *2373:LO O *D sky130_fd_sc_hd__conb_1
*CAP
1 mem_addr[0] 0.000433633
2 *2373:LO 0.000433633
3 mem_addr[0] mem_addr[1] 0.000329832
4 mem_addr[0] mem_addr[7] 0.000105278
5 mem_addr[0] *2253:A 8.16947e-05
6 *13:12 mem_addr[0] 0.00012003
*RES
1 *2373:LO mem_addr[0] 8.43463 
*END

*D_NET *25 0.00271963
*CONN
*P mem_addr[10] O
*I *2383:LO O *D sky130_fd_sc_hd__conb_1
*CAP
1 mem_addr[10] 0.00055143
2 *2383:LO 0.00055143
3 mem_addr[10] mem_addr[11] 0.000313559
4 mem_addr[10] mem_addr[12] 3.96423e-05
5 mem_addr[10] mem_addr[9] 0.00034043
6 mem_addr[10] *1742:A_N 8.65905e-05
7 mem_addr[10] *1742:B 0.000275542
8 mem_addr[10] *1792:A 0.000194891
9 mem_addr[10] *1792:B 8.65961e-05
10 mem_addr[10] *2163:A 0.000103273
11 mem_addr[10] *2260:A 0.000129085
12 mem_addr[10] *691:36 0
13 mem_addr[10] *694:8 4.71626e-05
*RES
1 *2383:LO mem_addr[10] 15.0214 
*END

*D_NET *26 0.00224793
*CONN
*P mem_addr[11] O
*I *2384:LO O *D sky130_fd_sc_hd__conb_1
*CAP
1 mem_addr[11] 0.000495982
2 *2384:LO 0.000495982
3 mem_addr[11] mem_addr[12] 0.000277992
4 mem_addr[11] mem_addr[15] 0.000309906
5 mem_addr[11] *1636:A 0.000354508
6 mem_addr[11] *691:36 0
7 mem_addr[10] mem_addr[11] 0.000313559
*RES
1 *2384:LO mem_addr[11] 13.8566 
*END

*D_NET *27 0.00163099
*CONN
*P mem_addr[12] O
*I *2385:LO O *D sky130_fd_sc_hd__conb_1
*CAP
1 mem_addr[12] 0.000409405
2 *2385:LO 0.000409405
3 mem_addr[12] mem_addr[13] 0.000436274
4 mem_addr[12] mem_addr[8] 0
5 mem_addr[12] *691:36 5.82679e-05
6 mem_addr[10] mem_addr[12] 3.96423e-05
7 mem_addr[11] mem_addr[12] 0.000277992
*RES
1 *2385:LO mem_addr[12] 7.3027 
*END

*D_NET *28 0.00123563
*CONN
*P mem_addr[13] O
*I *2386:LO O *D sky130_fd_sc_hd__conb_1
*CAP
1 mem_addr[13] 0.000221586
2 *2386:LO 0.000221586
3 mem_addr[13] mem_addr[14] 0.000356181
4 mem_addr[12] mem_addr[13] 0.000436274
*RES
1 *2386:LO mem_addr[13] 5.42943 
*END

*D_NET *29 0.000982038
*CONN
*P mem_addr[14] O
*I *2387:LO O *D sky130_fd_sc_hd__conb_1
*CAP
1 mem_addr[14] 0.000197439
2 *2387:LO 0.000197439
3 mem_addr[14] mem_addr[15] 0.000230979
4 mem_addr[14] mem_addr[17] 0
5 mem_addr[14] *691:36 0
6 mem_addr[13] mem_addr[14] 0.000356181
*RES
1 *2387:LO mem_addr[14] 5.25463 
*END

*D_NET *30 0.00129917
*CONN
*P mem_addr[15] O
*I *2388:LO O *D sky130_fd_sc_hd__conb_1
*CAP
1 mem_addr[15] 0.000275392
2 *2388:LO 0.000275392
3 mem_addr[15] mem_addr[16] 0.000183965
4 mem_addr[15] mem_addr[17] 2.35332e-05
5 mem_addr[11] mem_addr[15] 0.000309906
6 mem_addr[14] mem_addr[15] 0.000230979
*RES
1 *2388:LO mem_addr[15] 8.88003 
*END

*D_NET *31 0.00139343
*CONN
*P mem_addr[16] O
*I *2389:LO O *D sky130_fd_sc_hd__conb_1
*CAP
1 mem_addr[16] 0.000490092
2 *2389:LO 0.000490092
3 mem_addr[16] mem_addr[17] 0.000180746
4 mem_addr[16] mem_addr[19] 4.85381e-05
5 mem_addr[16] *1636:A 0
6 mem_addr[15] mem_addr[16] 0.000183965
*RES
1 *2389:LO mem_addr[16] 10.9985 
*END

*D_NET *32 0.0011727
*CONN
*P mem_addr[17] O
*I *2390:LO O *D sky130_fd_sc_hd__conb_1
*CAP
1 mem_addr[17] 0.000278056
2 *2390:LO 0.000278056
3 mem_addr[17] mem_addr[18] 0.000352948
4 mem_addr[17] *1636:A 5.93601e-05
5 mem_addr[17] *691:36 0
6 mem_addr[14] mem_addr[17] 0
7 mem_addr[15] mem_addr[17] 2.35332e-05
8 mem_addr[16] mem_addr[17] 0.000180746
*RES
1 *2390:LO mem_addr[17] 5.76463 
*END

*D_NET *33 0.0012797
*CONN
*P mem_addr[18] O
*I *2391:LO O *D sky130_fd_sc_hd__conb_1
*CAP
1 mem_addr[18] 0.000286531
2 *2391:LO 0.000286531
3 mem_addr[18] mem_addr[19] 0.000321786
4 mem_addr[18] mem_addr[20] 2.26304e-05
5 mem_addr[18] *691:36 9.26907e-06
6 mem_addr[17] mem_addr[18] 0.000352948
*RES
1 *2391:LO mem_addr[18] 5.42943 
*END

*D_NET *34 0.00120165
*CONN
*P mem_addr[19] O
*I *2392:LO O *D sky130_fd_sc_hd__conb_1
*CAP
1 mem_addr[19] 0.000204038
2 *2392:LO 0.000204038
3 mem_addr[19] mem_addr[20] 0.000319208
4 mem_addr[19] *1636:A 0.000104042
5 mem_addr[16] mem_addr[19] 4.85381e-05
6 mem_addr[18] mem_addr[19] 0.000321786
*RES
1 *2392:LO mem_addr[19] 6.9531 
*END

*D_NET *35 0.00176366
*CONN
*P mem_addr[1] O
*I *2374:LO O *D sky130_fd_sc_hd__conb_1
*CAP
1 mem_addr[1] 0.000435708
2 *2374:LO 0.000435708
3 mem_addr[1] mem_addr[2] 0.000412655
4 mem_addr[1] mem_addr[5] 4.04823e-05
5 mem_addr[1] mem_addr[7] 0
6 mem_addr[1] *2259:A 2.39856e-05
7 mem_addr[1] *692:14 8.52845e-05
8 mem_addr[0] mem_addr[1] 0.000329832
*RES
1 *2374:LO mem_addr[1] 7.28597 
*END

*D_NET *36 0.00120698
*CONN
*P mem_addr[20] O
*I *2301:LO O *D sky130_fd_sc_hd__conb_1
*CAP
1 mem_addr[20] 0.000262084
2 *2301:LO 0.000262084
3 mem_addr[20] mem_addr[21] 0.000332655
4 mem_addr[20] *1935:A 8.32311e-06
5 mem_addr[18] mem_addr[20] 2.26304e-05
6 mem_addr[19] mem_addr[20] 0.000319208
*RES
1 *2301:LO mem_addr[20] 5.42943 
*END

*D_NET *37 0.00109248
*CONN
*P mem_addr[21] O
*I *2302:LO O *D sky130_fd_sc_hd__conb_1
*CAP
1 mem_addr[21] 0.000234813
2 *2302:LO 0.000234813
3 mem_addr[21] mem_addr[22] 0.000231159
4 mem_addr[21] mem_addr[24] 0
5 mem_addr[21] *1636:A 5.90415e-05
6 mem_addr[20] mem_addr[21] 0.000332655
*RES
1 *2302:LO mem_addr[21] 5.76463 
*END

*D_NET *38 0.00168741
*CONN
*P mem_addr[22] O
*I *2303:LO O *D sky130_fd_sc_hd__conb_1
*CAP
1 mem_addr[22] 0.000454928
2 *2303:LO 0.000454928
3 mem_addr[22] mem_addr[23] 0.000390308
4 mem_addr[22] mem_addr[24] 7.14112e-05
5 mem_addr[22] mem_addr[27] 8.46768e-05
6 mem_addr[22] *2178:A 0
7 mem_addr[21] mem_addr[22] 0.000231159
*RES
1 *2303:LO mem_addr[22] 10.9033 
*END

*D_NET *39 0.0011961
*CONN
*P mem_addr[23] O
*I *2304:LO O *D sky130_fd_sc_hd__conb_1
*CAP
1 mem_addr[23] 0.000363463
2 *2304:LO 0.000363463
3 mem_addr[23] mem_addr[24] 7.88708e-05
4 mem_addr[22] mem_addr[23] 0.000390308
*RES
1 *2304:LO mem_addr[23] 10.6004 
*END

*D_NET *40 0.00188376
*CONN
*P mem_addr[24] O
*I *2305:LO O *D sky130_fd_sc_hd__conb_1
*CAP
1 mem_addr[24] 0.000651334
2 *2305:LO 0.000651334
3 mem_addr[24] mem_addr[25] 0.000421223
4 mem_addr[24] *1641:B1 9.58678e-06
5 mem_addr[21] mem_addr[24] 0
6 mem_addr[22] mem_addr[24] 7.14112e-05
7 mem_addr[23] mem_addr[24] 7.88708e-05
*RES
1 *2305:LO mem_addr[24] 5.77903 
*END

*D_NET *41 0.00160081
*CONN
*P mem_addr[25] O
*I *2306:LO O *D sky130_fd_sc_hd__conb_1
*CAP
1 mem_addr[25] 0.00042959
2 *2306:LO 0.00042959
3 mem_addr[25] mem_addr[26] 0.000230979
4 mem_addr[25] mem_addr[27] 4.74559e-05
5 mem_addr[25] mem_addr[28] 0
6 mem_addr[25] *1935:A 4.1977e-05
7 mem_addr[25] *2178:A 0
8 mem_addr[24] mem_addr[25] 0.000421223
*RES
1 *2306:LO mem_addr[25] 6.94097 
*END

*D_NET *42 0.001394
*CONN
*P mem_addr[26] O
*I *2307:LO O *D sky130_fd_sc_hd__conb_1
*CAP
1 mem_addr[26] 0.00046763
2 *2307:LO 0.00046763
3 mem_addr[26] mem_addr[27] 0.000227759
4 mem_addr[26] mem_addr[31] 0
5 mem_addr[25] mem_addr[26] 0.000230979
*RES
1 *2307:LO mem_addr[26] 10.68 
*END

*D_NET *43 0.00145997
*CONN
*P mem_addr[27] O
*I *2308:LO O *D sky130_fd_sc_hd__conb_1
*CAP
1 mem_addr[27] 0.000335627
2 *2308:LO 0.000335627
3 mem_addr[27] mem_addr[28] 0.000315309
4 mem_addr[27] *1935:A 0
5 mem_addr[27] *2178:A 0.000113511
6 mem_addr[22] mem_addr[27] 8.46768e-05
7 mem_addr[25] mem_addr[27] 4.74559e-05
8 mem_addr[26] mem_addr[27] 0.000227759
*RES
1 *2308:LO mem_addr[27] 8.4831 
*END

*D_NET *44 0.00128421
*CONN
*P mem_addr[28] O
*I *2309:LO O *D sky130_fd_sc_hd__conb_1
*CAP
1 mem_addr[28] 0.000283561
2 *2309:LO 0.000283561
3 mem_addr[28] mem_addr[29] 0.000368385
4 mem_addr[28] mem_addr[30] 2.41236e-05
5 mem_addr[28] *1935:A 9.26907e-06
6 mem_addr[25] mem_addr[28] 0
7 mem_addr[27] mem_addr[28] 0.000315309
*RES
1 *2309:LO mem_addr[28] 5.42943 
*END

*D_NET *45 0.00107019
*CONN
*P mem_addr[29] O
*I *2310:LO O *D sky130_fd_sc_hd__conb_1
*CAP
1 mem_addr[29] 0.000171671
2 *2310:LO 0.000171671
3 mem_addr[29] mem_addr[30] 0.000358461
4 mem_addr[29] *1935:A 0
5 mem_addr[28] mem_addr[29] 0.000368385
*RES
1 *2310:LO mem_addr[29] 5.76463 
*END

*D_NET *46 0.00222372
*CONN
*P mem_addr[2] O
*I *2375:LO O *D sky130_fd_sc_hd__conb_1
*CAP
1 mem_addr[2] 0.000637883
2 *2375:LO 0.000637883
3 mem_addr[2] mem_addr[3] 0.000535301
4 mem_addr[1] mem_addr[2] 0.000412655
5 *13:12 mem_addr[2] 0
*RES
1 *2375:LO mem_addr[2] 7.48383 
*END

*D_NET *47 0.00122641
*CONN
*P mem_addr[30] O
*I *2311:LO O *D sky130_fd_sc_hd__conb_1
*CAP
1 mem_addr[30] 0.000256149
2 *2311:LO 0.000256149
3 mem_addr[30] mem_addr[31] 0.000274773
4 mem_addr[30] mem_wdata[0] 5.25722e-05
5 mem_addr[30] *1935:A 4.18603e-06
6 mem_addr[28] mem_addr[30] 2.41236e-05
7 mem_addr[29] mem_addr[30] 0.000358461
*RES
1 *2311:LO mem_addr[30] 5.42943 
*END

*D_NET *48 0.00108646
*CONN
*P mem_addr[31] O
*I *2312:LO O *D sky130_fd_sc_hd__conb_1
*CAP
1 mem_addr[31] 0.000268457
2 *2312:LO 0.000268457
3 mem_addr[31] mem_wdata[0] 0.000274773
4 mem_addr[26] mem_addr[31] 0
5 mem_addr[30] mem_addr[31] 0.000274773
*RES
1 *2312:LO mem_addr[31] 7.52657 
*END

*D_NET *49 0.00246266
*CONN
*P mem_addr[3] O
*I *2376:LO O *D sky130_fd_sc_hd__conb_1
*CAP
1 mem_addr[3] 0.000572133
2 *2376:LO 0.000572133
3 mem_addr[3] mem_addr[4] 0.000690336
4 mem_addr[3] *2259:A 4.38326e-05
5 mem_addr[3] *692:14 4.89295e-05
6 mem_addr[2] mem_addr[3] 0.000535301
*RES
1 *2376:LO mem_addr[3] 8.0377 
*END

*D_NET *50 0.00184658
*CONN
*P mem_addr[4] O
*I *2377:LO O *D sky130_fd_sc_hd__conb_1
*CAP
1 mem_addr[4] 0.000340133
2 *2377:LO 0.000340133
3 mem_addr[4] mem_addr[5] 0.000439548
4 mem_addr[4] mem_addr[6] 1.71272e-05
5 mem_addr[4] *2259:A 1.92979e-05
6 mem_addr[3] mem_addr[4] 0.000690336
*RES
1 *2377:LO mem_addr[4] 5.77903 
*END

*D_NET *51 0.00246605
*CONN
*P mem_addr[5] O
*I *2378:LO O *D sky130_fd_sc_hd__conb_1
*CAP
1 mem_addr[5] 0.000564067
2 *2378:LO 0.000564067
3 mem_addr[5] mem_addr[6] 0.000460766
4 mem_addr[5] mem_addr[7] 0
5 mem_addr[5] mem_addr[9] 0
6 mem_addr[5] *2163:A 0
7 mem_addr[5] *2168:A 0.000397116
8 mem_addr[1] mem_addr[5] 4.04823e-05
9 mem_addr[4] mem_addr[5] 0.000439548
*RES
1 *2378:LO mem_addr[5] 11.2442 
*END

*D_NET *52 0.0019364
*CONN
*P mem_addr[6] O
*I *2379:LO O *D sky130_fd_sc_hd__conb_1
*CAP
1 mem_addr[6] 0.000558348
2 *2379:LO 0.000558348
3 mem_addr[6] mem_addr[7] 0.000321786
4 mem_addr[6] mem_addr[8] 2.00297e-05
5 mem_addr[6] *1792:B 0
6 mem_addr[4] mem_addr[6] 1.71272e-05
7 mem_addr[5] mem_addr[6] 0.000460766
*RES
1 *2379:LO mem_addr[6] 5.95383 
*END

*D_NET *53 0.00253476
*CONN
*P mem_addr[7] O
*I *2380:LO O *D sky130_fd_sc_hd__conb_1
*CAP
1 mem_addr[7] 0.000672118
2 *2380:LO 0.000672118
3 mem_addr[7] mem_addr[8] 0.000319208
4 mem_addr[7] mem_addr[9] 0.000444253
5 mem_addr[0] mem_addr[7] 0.000105278
6 mem_addr[1] mem_addr[7] 0
7 mem_addr[5] mem_addr[7] 0
8 mem_addr[6] mem_addr[7] 0.000321786
*RES
1 *2380:LO mem_addr[7] 15.6231 
*END

*D_NET *54 0.00291042
*CONN
*P mem_addr[8] O
*I *2381:LO O *D sky130_fd_sc_hd__conb_1
*CAP
1 mem_addr[8] 0.000869658
2 *2381:LO 0.000869658
3 mem_addr[8] mem_addr[9] 0.000345293
4 mem_addr[8] *1635:A 2.11084e-05
5 mem_addr[8] *1636:C 2.68464e-05
6 mem_addr[8] *1717:B 5.37577e-05
7 mem_addr[8] *1718:A1 4.82863e-05
8 mem_addr[8] *2163:A 4.05872e-05
9 mem_addr[8] *2196:A 6.71882e-05
10 mem_addr[8] *2226:A 2.10214e-05
11 mem_addr[8] *691:36 1.52491e-05
12 mem_addr[8] *720:12 4.70326e-05
13 mem_addr[8] *720:14 0.000145495
14 mem_addr[12] mem_addr[8] 0
15 mem_addr[6] mem_addr[8] 2.00297e-05
16 mem_addr[7] mem_addr[8] 0.000319208
*RES
1 *2381:LO mem_addr[8] 14.5194 
*END

*D_NET *55 0.00240488
*CONN
*P mem_addr[9] O
*I *2382:LO O *D sky130_fd_sc_hd__conb_1
*CAP
1 mem_addr[9] 0.000406914
2 *2382:LO 0.000406914
3 mem_addr[9] *2163:A 0.000461079
4 mem_addr[10] mem_addr[9] 0.00034043
5 mem_addr[5] mem_addr[9] 0
6 mem_addr[7] mem_addr[9] 0.000444253
7 mem_addr[8] mem_addr[9] 0.000345293
*RES
1 *2382:LO mem_addr[9] 12.7864 
*END

*D_NET *56 0.00182071
*CONN
*P mem_read O
*I *2313:LO O *D sky130_fd_sc_hd__conb_1
*CAP
1 mem_read 0.00070739
2 *2313:LO 0.00070739
3 mem_read mem_wdata[31] 0.000160334
4 mem_read mem_write 0.000245598
*RES
1 *2313:LO mem_read 12.7016 
*END

*D_NET *57 0.00155227
*CONN
*P mem_wdata[0] O
*I *2314:LO O *D sky130_fd_sc_hd__conb_1
*CAP
1 mem_wdata[0] 0.000386048
2 *2314:LO 0.000386048
3 mem_wdata[0] mem_wdata[1] 0.000444072
4 mem_wdata[0] mem_wdata[2] 8.75811e-06
5 mem_addr[30] mem_wdata[0] 5.25722e-05
6 mem_addr[31] mem_wdata[0] 0.000274773
*RES
1 *2314:LO mem_wdata[0] 7.3027 
*END

*D_NET *58 0.00118574
*CONN
*P mem_wdata[10] O
*I *2324:LO O *D sky130_fd_sc_hd__conb_1
*CAP
1 mem_wdata[10] 0.000277816
2 *2324:LO 0.000277816
3 mem_wdata[10] mem_wdata[11] 0.000209807
4 mem_wdata[10] mem_wdata[12] 6.18376e-05
5 mem_wdata[10] mem_wdata[9] 0.000358461
*RES
1 *2324:LO mem_wdata[10] 6.78463 
*END

*D_NET *59 0.00115231
*CONN
*P mem_wdata[11] O
*I *2325:LO O *D sky130_fd_sc_hd__conb_1
*CAP
1 mem_wdata[11] 0.000367758
2 *2325:LO 0.000367758
3 mem_wdata[11] mem_wdata[12] 0.000206983
4 mem_wdata[10] mem_wdata[11] 0.000209807
*RES
1 *2325:LO mem_wdata[11] 8.88003 
*END

*D_NET *60 0.00119216
*CONN
*P mem_wdata[12] O
*I *2326:LO O *D sky130_fd_sc_hd__conb_1
*CAP
1 mem_wdata[12] 0.000293673
2 *2326:LO 0.000293673
3 mem_wdata[12] mem_wdata[13] 0.000335994
4 mem_wdata[10] mem_wdata[12] 6.18376e-05
5 mem_wdata[11] mem_wdata[12] 0.000206983
*RES
1 *2326:LO mem_wdata[12] 6.27463 
*END

*D_NET *61 0.00123297
*CONN
*P mem_wdata[13] O
*I *2327:LO O *D sky130_fd_sc_hd__conb_1
*CAP
1 mem_wdata[13] 0.000284618
2 *2327:LO 0.000284618
3 mem_wdata[13] mem_wdata[14] 0.00032774
4 mem_wdata[12] mem_wdata[13] 0.000335994
*RES
1 *2327:LO mem_wdata[13] 5.42943 
*END

*D_NET *62 0.00126042
*CONN
*P mem_wdata[14] O
*I *2328:LO O *D sky130_fd_sc_hd__conb_1
*CAP
1 mem_wdata[14] 0.000361434
2 *2328:LO 0.000361434
3 mem_wdata[14] mem_wdata[15] 0.000209807
4 mem_wdata[14] *2073:RESET_B 0
5 mem_wdata[13] mem_wdata[14] 0.00032774
*RES
1 *2328:LO mem_wdata[14] 7.29463 
*END

*D_NET *63 0.0011453
*CONN
*P mem_wdata[15] O
*I *2329:LO O *D sky130_fd_sc_hd__conb_1
*CAP
1 mem_wdata[15] 0.000364011
2 *2329:LO 0.000364011
3 mem_wdata[15] mem_wdata[16] 0.000207472
4 mem_wdata[15] mem_wdata[19] 0
5 mem_wdata[14] mem_wdata[15] 0.000209807
*RES
1 *2329:LO mem_wdata[15] 8.88003 
*END

*D_NET *64 0.00143873
*CONN
*P mem_wdata[16] O
*I *2330:LO O *D sky130_fd_sc_hd__conb_1
*CAP
1 mem_wdata[16] 0.000357513
2 *2330:LO 0.000357513
3 mem_wdata[16] mem_wdata[17] 0.000516235
4 mem_wdata[16] mem_wdata[19] 0
5 mem_wdata[15] mem_wdata[16] 0.000207472
*RES
1 *2330:LO mem_wdata[16] 10.9368 
*END

*D_NET *65 0.00155708
*CONN
*P mem_wdata[17] O
*I *2331:LO O *D sky130_fd_sc_hd__conb_1
*CAP
1 mem_wdata[17] 0.000369023
2 *2331:LO 0.000369023
3 mem_wdata[17] mem_wdata[18] 0.000289585
4 mem_wdata[17] mem_wdata[19] 1.32141e-05
5 mem_wdata[16] mem_wdata[17] 0.000516235
*RES
1 *2331:LO mem_wdata[17] 12.067 
*END

*D_NET *66 0.00208562
*CONN
*P mem_wdata[18] O
*I *2332:LO O *D sky130_fd_sc_hd__conb_1
*CAP
1 mem_wdata[18] 0.000652019
2 *2332:LO 0.000652019
3 mem_wdata[18] mem_wdata[19] 0.000110226
4 mem_wdata[18] mem_wdata[20] 0.000238137
5 mem_wdata[18] mem_wdata[23] 3.71853e-05
6 mem_wdata[18] mem_wdata[24] 0.000106444
7 mem_wdata[17] mem_wdata[18] 0.000289585
*RES
1 *2332:LO mem_wdata[18] 15.6537 
*END

*D_NET *67 0.00157722
*CONN
*P mem_wdata[19] O
*I *2333:LO O *D sky130_fd_sc_hd__conb_1
*CAP
1 mem_wdata[19] 0.000542466
2 *2333:LO 0.000542466
3 mem_wdata[19] mem_wdata[20] 0.000221774
4 mem_wdata[19] mem_wdata[21] 0.000126034
5 mem_wdata[19] *2207:A 2.10433e-05
6 mem_wdata[15] mem_wdata[19] 0
7 mem_wdata[16] mem_wdata[19] 0
8 mem_wdata[17] mem_wdata[19] 1.32141e-05
9 mem_wdata[18] mem_wdata[19] 0.000110226
*RES
1 *2333:LO mem_wdata[19] 5.76637 
*END

*D_NET *68 0.00123364
*CONN
*P mem_wdata[1] O
*I *2315:LO O *D sky130_fd_sc_hd__conb_1
*CAP
1 mem_wdata[1] 0.000189579
2 *2315:LO 0.000189579
3 mem_wdata[1] mem_wdata[2] 0.000410411
4 mem_wdata[0] mem_wdata[1] 0.000444072
*RES
1 *2315:LO mem_wdata[1] 5.42943 
*END

*D_NET *69 0.00195167
*CONN
*P mem_wdata[20] O
*I *2334:LO O *D sky130_fd_sc_hd__conb_1
*CAP
1 mem_wdata[20] 0.000572189
2 *2334:LO 0.000572189
3 mem_wdata[20] mem_wdata[21] 0.000223172
4 mem_wdata[20] mem_wdata[22] 0
5 mem_wdata[20] mem_wdata[23] 0.000124212
6 mem_wdata[18] mem_wdata[20] 0.000238137
7 mem_wdata[19] mem_wdata[20] 0.000221774
*RES
1 *2334:LO mem_wdata[20] 13.47 
*END

*D_NET *70 0.00112406
*CONN
*P mem_wdata[21] O
*I *2335:LO O *D sky130_fd_sc_hd__conb_1
*CAP
1 mem_wdata[21] 0.000211434
2 *2335:LO 0.000211434
3 mem_wdata[21] mem_wdata[22] 0.000351984
4 mem_wdata[21] *2071:RESET_B 0
5 mem_wdata[19] mem_wdata[21] 0.000126034
6 mem_wdata[20] mem_wdata[21] 0.000223172
*RES
1 *2335:LO mem_wdata[21] 5.37117 
*END

*D_NET *71 0.00167714
*CONN
*P mem_wdata[22] O
*I *2336:LO O *D sky130_fd_sc_hd__conb_1
*CAP
1 mem_wdata[22] 0.000572545
2 *2336:LO 0.000572545
3 mem_wdata[22] mem_wdata[23] 0.000180066
4 mem_wdata[22] mem_wdata[25] 0
5 mem_wdata[22] mem_wdata[26] 0
6 mem_wdata[22] *2071:RESET_B 0
7 mem_wdata[20] mem_wdata[22] 0
8 mem_wdata[21] mem_wdata[22] 0.000351984
*RES
1 *2336:LO mem_wdata[22] 10.8646 
*END

*D_NET *72 0.00170263
*CONN
*P mem_wdata[23] O
*I *2337:LO O *D sky130_fd_sc_hd__conb_1
*CAP
1 mem_wdata[23] 0.000490359
2 *2337:LO 0.000490359
3 mem_wdata[23] mem_wdata[24] 0.000354018
4 mem_wdata[23] mem_wdata[25] 2.64282e-05
5 mem_wdata[18] mem_wdata[23] 3.71853e-05
6 mem_wdata[20] mem_wdata[23] 0.000124212
7 mem_wdata[22] mem_wdata[23] 0.000180066
*RES
1 *2337:LO mem_wdata[23] 13.5335 
*END

*D_NET *73 0.00167607
*CONN
*P mem_wdata[24] O
*I *2338:LO O *D sky130_fd_sc_hd__conb_1
*CAP
1 mem_wdata[24] 0.00048663
2 *2338:LO 0.00048663
3 mem_wdata[24] mem_wdata[25] 0.000133053
4 mem_wdata[24] mem_wdata[27] 0.000109297
5 mem_wdata[18] mem_wdata[24] 0.000106444
6 mem_wdata[23] mem_wdata[24] 0.000354018
*RES
1 *2338:LO mem_wdata[24] 13.327 
*END

*D_NET *74 0.00156846
*CONN
*P mem_wdata[25] O
*I *2339:LO O *D sky130_fd_sc_hd__conb_1
*CAP
1 mem_wdata[25] 0.000480291
2 *2339:LO 0.000480291
3 mem_wdata[25] mem_wdata[26] 0.000448399
4 mem_wdata[22] mem_wdata[25] 0
5 mem_wdata[23] mem_wdata[25] 2.64282e-05
6 mem_wdata[24] mem_wdata[25] 0.000133053
*RES
1 *2339:LO mem_wdata[25] 5.60423 
*END

*D_NET *75 0.00162936
*CONN
*P mem_wdata[26] O
*I *2340:LO O *D sky130_fd_sc_hd__conb_1
*CAP
1 mem_wdata[26] 0.000470868
2 *2340:LO 0.000470868
3 mem_wdata[26] mem_wdata[27] 8.99386e-05
4 mem_wdata[26] mem_wdata[28] 0.000149283
5 mem_wdata[22] mem_wdata[26] 0
6 mem_wdata[25] mem_wdata[26] 0.000448399
*RES
1 *2340:LO mem_wdata[26] 7.13423 
*END

*D_NET *76 0.00152568
*CONN
*P mem_wdata[27] O
*I *2341:LO O *D sky130_fd_sc_hd__conb_1
*CAP
1 mem_wdata[27] 0.000501145
2 *2341:LO 0.000501145
3 mem_wdata[27] mem_wdata[28] 8.99386e-05
4 mem_wdata[27] mem_wdata[30] 0.00023422
5 mem_wdata[27] mem_wdata[31] 0
6 mem_wdata[24] mem_wdata[27] 0.000109297
7 mem_wdata[26] mem_wdata[27] 8.99386e-05
*RES
1 *2341:LO mem_wdata[27] 13.3904 
*END

*D_NET *77 0.00136505
*CONN
*P mem_wdata[28] O
*I *2342:LO O *D sky130_fd_sc_hd__conb_1
*CAP
1 mem_wdata[28] 0.000380851
2 *2342:LO 0.000380851
3 mem_wdata[28] mem_wdata[29] 0.000364125
4 mem_wdata[26] mem_wdata[28] 0.000149283
5 mem_wdata[27] mem_wdata[28] 8.99386e-05
*RES
1 *2342:LO mem_wdata[28] 6.44943 
*END

*D_NET *78 0.00160939
*CONN
*P mem_wdata[29] O
*I *2343:LO O *D sky130_fd_sc_hd__conb_1
*CAP
1 mem_wdata[29] 0.000493214
2 *2343:LO 0.000493214
3 mem_wdata[29] mem_wdata[30] 0.000223181
4 mem_wdata[29] mem_wdata[31] 0
5 mem_wdata[29] mem_write 3.56522e-05
6 mem_wdata[28] mem_wdata[29] 0.000364125
*RES
1 *2343:LO mem_wdata[29] 9.33463 
*END

*D_NET *79 0.00157567
*CONN
*P mem_wdata[2] O
*I *2316:LO O *D sky130_fd_sc_hd__conb_1
*CAP
1 mem_wdata[2] 0.000399772
2 *2316:LO 0.000399772
3 mem_wdata[2] mem_wdata[3] 0.000356957
4 mem_wdata[0] mem_wdata[2] 8.75811e-06
5 mem_wdata[1] mem_wdata[2] 0.000410411
*RES
1 *2316:LO mem_wdata[2] 5.77903 
*END

*D_NET *80 0.00142947
*CONN
*P mem_wdata[30] O
*I *2344:LO O *D sky130_fd_sc_hd__conb_1
*CAP
1 mem_wdata[30] 0.000371168
2 *2344:LO 0.000371168
3 mem_wdata[30] mem_wdata[31] 0.000208632
4 mem_wdata[30] mem_write 2.11032e-05
5 mem_wdata[27] mem_wdata[30] 0.00023422
6 mem_wdata[29] mem_wdata[30] 0.000223181
*RES
1 *2344:LO mem_wdata[30] 9.90003 
*END

*D_NET *81 0.00158397
*CONN
*P mem_wdata[31] O
*I *2345:LO O *D sky130_fd_sc_hd__conb_1
*CAP
1 mem_wdata[31] 0.000525678
2 *2345:LO 0.000525678
3 mem_wdata[31] mem_write 0.000163646
4 mem_read mem_wdata[31] 0.000160334
5 mem_wdata[27] mem_wdata[31] 0
6 mem_wdata[29] mem_wdata[31] 0
7 mem_wdata[30] mem_wdata[31] 0.000208632
*RES
1 *2345:LO mem_wdata[31] 12.7535 
*END

*D_NET *82 0.0015928
*CONN
*P mem_wdata[3] O
*I *2317:LO O *D sky130_fd_sc_hd__conb_1
*CAP
1 mem_wdata[3] 0.000344507
2 *2317:LO 0.000344507
3 mem_wdata[3] mem_wdata[4] 0.000540901
4 mem_wdata[3] mem_wdata[6] 5.9286e-06
5 mem_wdata[2] mem_wdata[3] 0.000356957
*RES
1 *2317:LO mem_wdata[3] 5.76637 
*END

*D_NET *83 0.00152321
*CONN
*P mem_wdata[4] O
*I *2318:LO O *D sky130_fd_sc_hd__conb_1
*CAP
1 mem_wdata[4] 0.000207816
2 *2318:LO 0.000207816
3 mem_wdata[4] mem_wdata[5] 0.000414309
4 mem_wdata[4] mem_wdata[6] 0.00013051
5 mem_wdata[4] mem_wdata[7] 2.18586e-05
6 mem_wdata[3] mem_wdata[4] 0.000540901
*RES
1 *2318:LO mem_wdata[4] 6.90117 
*END

*D_NET *84 0.00146703
*CONN
*P mem_wdata[5] O
*I *2319:LO O *D sky130_fd_sc_hd__conb_1
*CAP
1 mem_wdata[5] 0.0003189
2 *2319:LO 0.0003189
3 mem_wdata[5] mem_wdata[6] 0.000356847
4 mem_wdata[5] mem_wdata[7] 5.80719e-05
5 mem_wdata[4] mem_wdata[5] 0.000414309
*RES
1 *2319:LO mem_wdata[5] 8.31463 
*END

*D_NET *85 0.00147821
*CONN
*P mem_wdata[6] O
*I *2320:LO O *D sky130_fd_sc_hd__conb_1
*CAP
1 mem_wdata[6] 0.000315351
2 *2320:LO 0.000315351
3 mem_wdata[6] mem_wdata[7] 0.000345293
4 mem_wdata[6] mem_wdata[8] 8.93168e-06
5 mem_wdata[3] mem_wdata[6] 5.9286e-06
6 mem_wdata[4] mem_wdata[6] 0.00013051
7 mem_wdata[5] mem_wdata[6] 0.000356847
*RES
1 *2320:LO mem_wdata[6] 6.95943 
*END

*D_NET *86 0.0013985
*CONN
*P mem_wdata[7] O
*I *2321:LO O *D sky130_fd_sc_hd__conb_1
*CAP
1 mem_wdata[7] 0.000316423
2 *2321:LO 0.000316423
3 mem_wdata[7] mem_wdata[8] 0.00034043
4 mem_wdata[7] *2081:RESET_B 0
5 mem_wdata[4] mem_wdata[7] 2.18586e-05
6 mem_wdata[5] mem_wdata[7] 5.80719e-05
7 mem_wdata[6] mem_wdata[7] 0.000345293
*RES
1 *2321:LO mem_wdata[7] 8.19637 
*END

*D_NET *87 0.0011417
*CONN
*P mem_wdata[8] O
*I *2322:LO O *D sky130_fd_sc_hd__conb_1
*CAP
1 mem_wdata[8] 0.000210284
2 *2322:LO 0.000210284
3 mem_wdata[8] mem_wdata[9] 0.000371771
4 mem_wdata[6] mem_wdata[8] 8.93168e-06
5 mem_wdata[7] mem_wdata[8] 0.00034043
*RES
1 *2322:LO mem_wdata[8] 6.27463 
*END

*D_NET *88 0.00120868
*CONN
*P mem_wdata[9] O
*I *2323:LO O *D sky130_fd_sc_hd__conb_1
*CAP
1 mem_wdata[9] 0.000239224
2 *2323:LO 0.000239224
3 mem_wdata[10] mem_wdata[9] 0.000358461
4 mem_wdata[8] mem_wdata[9] 0.000371771
*RES
1 *2323:LO mem_wdata[9] 5.42943 
*END

*D_NET *89 0.00143904
*CONN
*P mem_write O
*I *2346:LO O *D sky130_fd_sc_hd__conb_1
*CAP
1 mem_write 0.000486522
2 *2346:LO 0.000486522
3 mem_read mem_write 0.000245598
4 mem_wdata[29] mem_write 3.56522e-05
5 mem_wdata[30] mem_write 2.11032e-05
6 mem_wdata[31] mem_write 0.000163646
*RES
1 *2346:LO mem_write 6.44943 
*END

*D_NET *90 0.00150109
*CONN
*P pcRegister[0] O
*I *2347:LO O *D sky130_fd_sc_hd__conb_1
*CAP
1 pcRegister[0] 0.000586448
2 *2347:LO 0.000586448
3 pcRegister[0] pcRegister[1] 0.000133347
4 pcRegister[0] pcRegister[6] 0.00014592
5 pcRegister[0] *2290:A 4.89295e-05
*RES
1 *2347:LO pcRegister[0] 9.1651 
*END

*D_NET *91 0.00156637
*CONN
*P pcRegister[10] O
*I *2295:X O *D sky130_fd_sc_hd__clkdlybuf4s25_1
*CAP
1 pcRegister[10] 0.000539876
2 *2295:X 0.000539876
3 pcRegister[10] pcRegister[11] 0.000175212
4 pcRegister[10] pcRegister[9] 0.000178374
5 pcRegister[10] *2299:A 0.000133032
6 pcRegister[10] *543:22 0
*RES
1 *2295:X pcRegister[10] 10.3484 
*END

*D_NET *92 0.00257173
*CONN
*P pcRegister[11] O
*I *2296:X O *D sky130_fd_sc_hd__clkdlybuf4s25_1
*CAP
1 pcRegister[11] 0.00076083
2 *2296:X 0.00076083
3 pcRegister[11] pcRegister[12] 0.000134473
4 pcRegister[11] pcRegister[14] 4.33582e-05
5 pcRegister[11] pcRegister[6] 0.000106819
6 pcRegister[11] pcRegister[7] 0.000285081
7 pcRegister[11] pcRegister[8] 5.53549e-06
8 pcRegister[11] pcRegister[9] 0.000260319
9 pcRegister[11] *1867:B 3.92732e-05
10 pcRegister[11] *543:22 0
11 pcRegister[10] pcRegister[11] 0.000175212
*RES
1 *2296:X pcRegister[11] 17.1151 
*END

*D_NET *93 0.0018951
*CONN
*P pcRegister[12] O
*I *2297:X O *D sky130_fd_sc_hd__clkdlybuf4s25_1
*CAP
1 pcRegister[12] 0.000786376
2 *2297:X 0.000786376
3 pcRegister[12] pcRegister[13] 0.000181712
4 pcRegister[12] pcRegister[14] 0
5 pcRegister[12] *679:112 6.16226e-06
6 pcRegister[11] pcRegister[12] 0.000134473
*RES
1 *2297:X pcRegister[12] 6.31103 
*END

*D_NET *94 0.000880152
*CONN
*P pcRegister[13] O
*I *2298:X O *D sky130_fd_sc_hd__clkdlybuf4s25_1
*CAP
1 pcRegister[13] 0.00022989
2 *2298:X 0.00022989
3 pcRegister[13] pcRegister[14] 0.000238659
4 pcRegister[12] pcRegister[13] 0.000181712
*RES
1 *2298:X pcRegister[13] 6.11837 
*END

*D_NET *95 0.00169218
*CONN
*P pcRegister[14] O
*I *2299:X O *D sky130_fd_sc_hd__clkdlybuf4s25_1
*CAP
1 pcRegister[14] 0.000639311
2 *2299:X 0.000639311
3 pcRegister[14] pcRegister[15] 0.000131536
4 pcRegister[14] pcRegister[16] 0
5 pcRegister[14] *543:37 0
6 pcRegister[11] pcRegister[14] 4.33582e-05
7 pcRegister[12] pcRegister[14] 0
8 pcRegister[13] pcRegister[14] 0.000238659
*RES
1 *2299:X pcRegister[14] 12.1016 
*END

*D_NET *96 0.00111463
*CONN
*P pcRegister[15] O
*I *2267:X O *D sky130_fd_sc_hd__clkdlybuf4s25_1
*CAP
1 pcRegister[15] 0.000425778
2 *2267:X 0.000425778
3 pcRegister[15] pcRegister[16] 0.000131536
4 pcRegister[15] *1874:A 0
5 pcRegister[15] *543:37 0
6 pcRegister[14] pcRegister[15] 0.000131536
*RES
1 *2267:X pcRegister[15] 9.3053 
*END

*D_NET *97 0.00131579
*CONN
*P pcRegister[16] O
*I *2268:X O *D sky130_fd_sc_hd__clkdlybuf4s25_1
*CAP
1 pcRegister[16] 0.000509986
2 *2268:X 0.000509986
3 pcRegister[16] pcRegister[17] 0.000164282
4 pcRegister[14] pcRegister[16] 0
5 pcRegister[15] pcRegister[16] 0.000131536
*RES
1 *2268:X pcRegister[16] 8.94183 
*END

*D_NET *98 0.000852133
*CONN
*P pcRegister[17] O
*I *2269:X O *D sky130_fd_sc_hd__clkdlybuf4s25_1
*CAP
1 pcRegister[17] 0.000254092
2 *2269:X 0.000254092
3 pcRegister[17] pcRegister[18] 0.000179667
4 pcRegister[17] *2269:A 0
5 pcRegister[16] pcRegister[17] 0.000164282
*RES
1 *2269:X pcRegister[17] 6.11837 
*END

*D_NET *99 0.000841434
*CONN
*P pcRegister[18] O
*I *2270:X O *D sky130_fd_sc_hd__clkdlybuf4s25_1
*CAP
1 pcRegister[18] 0.000290092
2 *2270:X 0.000290092
3 pcRegister[18] pcRegister[19] 8.15826e-05
4 pcRegister[18] pcRegister[20] 0
5 pcRegister[17] pcRegister[18] 0.000179667
*RES
1 *2270:X pcRegister[18] 6.11837 
*END

*D_NET *100 0.00101605
*CONN
*P pcRegister[19] O
*I *2271:X O *D sky130_fd_sc_hd__clkdlybuf4s25_1
*CAP
1 pcRegister[19] 0.00042644
2 *2271:X 0.00042644
3 pcRegister[19] pcRegister[20] 8.15826e-05
4 pcRegister[18] pcRegister[19] 8.15826e-05
*RES
1 *2271:X pcRegister[19] 9.94223 
*END

*D_NET *101 0.00155124
*CONN
*P pcRegister[1] O
*I *2348:LO O *D sky130_fd_sc_hd__conb_1
*CAP
1 pcRegister[1] 0.000399349
2 *2348:LO 0.000399349
3 pcRegister[1] pcRegister[2] 0.000150145
4 pcRegister[1] pcRegister[4] 0
5 pcRegister[1] pcRegister[5] 1.12998e-05
6 pcRegister[1] pcRegister[6] 3.83808e-05
7 pcRegister[1] pcRegister[7] 0.000287929
8 pcRegister[1] *1854:B 0.000131441
9 pcRegister[0] pcRegister[1] 0.000133347
*RES
1 *2348:LO pcRegister[1] 9.80663 
*END

*D_NET *102 0.00135246
*CONN
*P pcRegister[20] O
*I *2272:X O *D sky130_fd_sc_hd__clkdlybuf4s25_1
*CAP
1 pcRegister[20] 0.000603069
2 *2272:X 0.000603069
3 pcRegister[20] pcRegister[21] 5.51545e-05
4 pcRegister[20] pcRegister[22] 9.58678e-06
5 pcRegister[20] *2272:A 0
6 pcRegister[20] *2273:A 0
7 pcRegister[20] *564:57 0
8 pcRegister[18] pcRegister[20] 0
9 pcRegister[19] pcRegister[20] 8.15826e-05
*RES
1 *2272:X pcRegister[20] 9.29663 
*END

*D_NET *103 0.00150805
*CONN
*P pcRegister[21] O
*I *2273:X O *D sky130_fd_sc_hd__clkdlybuf4s25_1
*CAP
1 pcRegister[21] 0.000705655
2 *2273:X 0.000705655
3 pcRegister[21] pcRegister[22] 4.15852e-05
4 pcRegister[20] pcRegister[21] 5.51545e-05
*RES
1 *2273:X pcRegister[21] 14.5957 
*END

*D_NET *104 0.00161474
*CONN
*P pcRegister[22] O
*I *2274:X O *D sky130_fd_sc_hd__clkdlybuf4s25_1
*CAP
1 pcRegister[22] 0.000589107
2 *2274:X 0.000589107
3 pcRegister[22] pcRegister[23] 0.000158537
4 pcRegister[22] *1910:A 4.89295e-05
5 pcRegister[22] *2039:D 7.17852e-05
6 pcRegister[22] *2273:A 0.000106105
7 pcRegister[20] pcRegister[22] 9.58678e-06
8 pcRegister[21] pcRegister[22] 4.15852e-05
*RES
1 *2274:X pcRegister[22] 9.54817 
*END

*D_NET *105 0.00159943
*CONN
*P pcRegister[23] O
*I *2275:X O *D sky130_fd_sc_hd__clkdlybuf4s25_1
*CAP
1 pcRegister[23] 0.000533835
2 *2275:X 0.000533835
3 pcRegister[23] pcRegister[24] 0.000104505
4 pcRegister[23] pcRegister[26] 9.58678e-06
5 pcRegister[23] *1910:B 1.42329e-05
6 pcRegister[23] *1910:C 0.000244903
7 pcRegister[23] *2273:A 0
8 pcRegister[22] pcRegister[23] 0.000158537
*RES
1 *2275:X pcRegister[23] 11.3366 
*END

*D_NET *106 0.00200875
*CONN
*P pcRegister[24] O
*I *2276:X O *D sky130_fd_sc_hd__clkdlybuf4s25_1
*CAP
1 pcRegister[24] 0.000925995
2 *2276:X 0.000925995
3 pcRegister[24] pcRegister[25] 5.22519e-05
4 pcRegister[24] pcRegister[26] 0
5 pcRegister[24] pcRegister[28] 0
6 pcRegister[24] *1607:A 0
7 pcRegister[23] pcRegister[24] 0.000104505
*RES
1 *2276:X pcRegister[24] 17.5288 
*END

*D_NET *107 0.00197881
*CONN
*P pcRegister[25] O
*I *2278:X O *D sky130_fd_sc_hd__clkdlybuf4s25_1
*CAP
1 pcRegister[25] 0.000937151
2 *2278:X 0.000937151
3 pcRegister[25] pcRegister[26] 5.22519e-05
4 pcRegister[24] pcRegister[25] 5.22519e-05
*RES
1 *2278:X pcRegister[25] 18.6757 
*END

*D_NET *108 0.00119253
*CONN
*P pcRegister[26] O
*I *2279:X O *D sky130_fd_sc_hd__clkdlybuf4s25_1
*CAP
1 pcRegister[26] 0.000364913
2 *2279:X 0.000364913
3 pcRegister[26] pcRegister[27] 0.000205417
4 pcRegister[26] *1910:B 0.000195445
5 pcRegister[23] pcRegister[26] 9.58678e-06
6 pcRegister[24] pcRegister[26] 0
7 pcRegister[25] pcRegister[26] 5.22519e-05
*RES
1 *2279:X pcRegister[26] 7.37317 
*END

*D_NET *109 0.00274782
*CONN
*P pcRegister[27] O
*I *2280:X O *D sky130_fd_sc_hd__clkdlybuf4s25_1
*CAP
1 pcRegister[27] 0.000871296
2 *2280:X 0.000871296
3 pcRegister[27] pcRegister[28] 0.000205635
4 pcRegister[27] pcRegister[29] 9.58678e-06
5 pcRegister[27] *1924:A1 0.000230985
6 pcRegister[27] *2043:D 0
7 pcRegister[27] *2278:A 0.000292582
8 pcRegister[27] *614:25 6.10259e-05
9 pcRegister[26] pcRegister[27] 0.000205417
*RES
1 *2280:X pcRegister[27] 12.0543 
*END

*D_NET *110 0.00245767
*CONN
*P pcRegister[28] O
*I *2281:X O *D sky130_fd_sc_hd__clkdlybuf4s25_1
*CAP
1 pcRegister[28] 0.0006276
2 *2281:X 0.0006276
3 pcRegister[28] pcRegister[29] 0.000205635
4 pcRegister[28] pcRegister[30] 0.000251065
5 pcRegister[28] *1607:A 0.000159721
6 pcRegister[28] *1924:A1 9.20976e-05
7 pcRegister[28] *2043:D 0.0001221
8 pcRegister[28] *2278:A 9.28507e-05
9 pcRegister[28] *2284:A 7.33706e-05
10 pcRegister[24] pcRegister[28] 0
11 pcRegister[27] pcRegister[28] 0.000205635
*RES
1 *2281:X pcRegister[28] 14.6032 
*END

*D_NET *111 0.00143829
*CONN
*P pcRegister[29] O
*I *2282:X O *D sky130_fd_sc_hd__clkdlybuf4s25_1
*CAP
1 pcRegister[29] 0.000514324
2 *2282:X 0.000514324
3 pcRegister[29] pcRegister[30] 0.000194424
4 pcRegister[29] pcRegister[31] 0
5 pcRegister[27] pcRegister[29] 9.58678e-06
6 pcRegister[28] pcRegister[29] 0.000205635
*RES
1 *2282:X pcRegister[29] 5.68277 
*END

*D_NET *112 0.00294619
*CONN
*P pcRegister[2] O
*I *2283:X O *D sky130_fd_sc_hd__clkdlybuf4s25_1
*CAP
1 pcRegister[2] 0.00123479
2 *2283:X 0.00123479
3 pcRegister[2] pcRegister[3] 0.000326468
4 pcRegister[1] pcRegister[2] 0.000150145
*RES
1 *2283:X pcRegister[2] 6.8937 
*END

*D_NET *113 0.00160537
*CONN
*P pcRegister[30] O
*I *2284:X O *D sky130_fd_sc_hd__clkdlybuf4s25_1
*CAP
1 pcRegister[30] 0.000472696
2 *2284:X 0.000472696
3 pcRegister[30] pcRegister[31] 0.000196854
4 pcRegister[30] *1607:A 1.7635e-05
5 pcRegister[28] pcRegister[30] 0.000251065
6 pcRegister[29] pcRegister[30] 0.000194424
*RES
1 *2284:X pcRegister[30] 7.7949 
*END

*D_NET *114 0.00277278
*CONN
*P pcRegister[31] O
*I *2285:X O *D sky130_fd_sc_hd__clkdlybuf4s25_1
*CAP
1 pcRegister[31] 0.00110055
2 *2285:X 0.00110055
3 pcRegister[31] *1922:A 0.000161985
4 pcRegister[31] *1922:C 3.67006e-06
5 pcRegister[31] *2043:D 0
6 pcRegister[31] *2045:D 6.07575e-06
7 pcRegister[31] *2184:A 0.000173724
8 pcRegister[31] *2284:A 4.36573e-06
9 pcRegister[31] *547:71 2.49909e-05
10 pcRegister[29] pcRegister[31] 0
11 pcRegister[30] pcRegister[31] 0.000196854
*RES
1 *2285:X pcRegister[31] 12.4293 
*END

*D_NET *115 0.0020512
*CONN
*P pcRegister[3] O
*I *2286:X O *D sky130_fd_sc_hd__clkdlybuf4s25_1
*CAP
1 pcRegister[3] 0.000616422
2 *2286:X 0.000616422
3 pcRegister[3] pcRegister[4] 0.000228181
4 pcRegister[3] *2291:A 1.88656e-05
5 pcRegister[3] *483:39 0.000236123
6 pcRegister[3] *667:18 8.7152e-06
7 pcRegister[2] pcRegister[3] 0.000326468
*RES
1 *2286:X pcRegister[3] 7.9743 
*END

*D_NET *116 0.0023874
*CONN
*P pcRegister[4] O
*I *2287:X O *D sky130_fd_sc_hd__clkdlybuf4s25_1
*CAP
1 pcRegister[4] 0.000722051
2 *2287:X 0.000722051
3 pcRegister[4] pcRegister[5] 0.00016738
4 pcRegister[4] pcRegister[7] 0
5 pcRegister[4] *1854:A 4.89295e-05
6 pcRegister[4] *1854:B 0.000459657
7 pcRegister[4] *1855:B1 9.77048e-06
8 pcRegister[4] *1861:A 0
9 pcRegister[4] *2291:A 0
10 pcRegister[4] *488:10 2.93818e-05
11 pcRegister[4] *667:18 0
12 pcRegister[1] pcRegister[4] 0
13 pcRegister[3] pcRegister[4] 0.000228181
*RES
1 *2287:X pcRegister[4] 13.8947 
*END

*D_NET *117 0.00270405
*CONN
*P pcRegister[5] O
*I *2289:X O *D sky130_fd_sc_hd__clkdlybuf4s25_1
*CAP
1 pcRegister[5] 0.000543991
2 *2289:X 0.000543991
3 pcRegister[5] pcRegister[6] 0.000770512
4 pcRegister[5] pcRegister[7] 0.000638176
5 pcRegister[5] *2291:A 2.86975e-05
6 pcRegister[1] pcRegister[5] 1.12998e-05
7 pcRegister[4] pcRegister[5] 0.00016738
*RES
1 *2289:X pcRegister[5] 15.5401 
*END

*D_NET *118 0.00283117
*CONN
*P pcRegister[6] O
*I *2290:X O *D sky130_fd_sc_hd__clkdlybuf4s25_1
*CAP
1 pcRegister[6] 0.000786121
2 *2290:X 0.000786121
3 pcRegister[6] pcRegister[7] 0.000197302
4 pcRegister[6] *1854:B 0
5 pcRegister[0] pcRegister[6] 0.00014592
6 pcRegister[11] pcRegister[6] 0.000106819
7 pcRegister[1] pcRegister[6] 3.83808e-05
8 pcRegister[5] pcRegister[6] 0.000770512
*RES
1 *2290:X pcRegister[6] 19.1868 
*END

*D_NET *119 0.00285503
*CONN
*P pcRegister[7] O
*I *2291:X O *D sky130_fd_sc_hd__clkdlybuf4s25_1
*CAP
1 pcRegister[7] 0.000477498
2 *2291:X 0.000477498
3 pcRegister[7] pcRegister[8] 0.000178374
4 pcRegister[7] *1867:B 0.000273284
5 pcRegister[7] *488:10 3.98852e-05
6 pcRegister[11] pcRegister[7] 0.000285081
7 pcRegister[1] pcRegister[7] 0.000287929
8 pcRegister[4] pcRegister[7] 0
9 pcRegister[5] pcRegister[7] 0.000638176
10 pcRegister[6] pcRegister[7] 0.000197302
*RES
1 *2291:X pcRegister[7] 16.3184 
*END

*D_NET *120 0.00240242
*CONN
*P pcRegister[8] O
*I *2292:X O *D sky130_fd_sc_hd__clkdlybuf4s25_1
*CAP
1 pcRegister[8] 0.000699845
2 *2292:X 0.000699845
3 pcRegister[8] pcRegister[9] 0.000363236
4 pcRegister[8] *1864:B 2.68721e-05
5 pcRegister[8] *1867:B 4.13879e-05
6 pcRegister[8] *1872:A 0.000387329
7 pcRegister[8] *543:22 0
8 pcRegister[11] pcRegister[8] 5.53549e-06
9 pcRegister[7] pcRegister[8] 0.000178374
*RES
1 *2292:X pcRegister[8] 12.8816 
*END

*D_NET *121 0.00160668
*CONN
*P pcRegister[9] O
*I *2293:X O *D sky130_fd_sc_hd__clkdlybuf4s25_1
*CAP
1 pcRegister[9] 0.000358007
2 *2293:X 0.000358007
3 pcRegister[9] *1864:A 4.99619e-05
4 pcRegister[9] *1867:B 3.87744e-05
5 pcRegister[10] pcRegister[9] 0.000178374
6 pcRegister[11] pcRegister[9] 0.000260319
7 pcRegister[8] pcRegister[9] 0.000363236
*RES
1 *2293:X pcRegister[9] 9.79337 
*END

*D_NET *122 0.00453079
*CONN
*P red[0] O
*I *2349:LO O *D sky130_fd_sc_hd__conb_1
*CAP
1 red[0] 0.00217295
2 *2349:LO 0.00217295
3 red[0] red[1] 0.000120397
4 red[0] red[2] 2.6784e-05
5 red[0] *1912:B 1.88602e-05
6 red[0] *2040:D 0
7 red[0] *2279:A 1.88602e-05
8 red[0] *169:18 0
*RES
1 *2349:LO red[0] 8.70027 
*END

*D_NET *123 0.00441621
*CONN
*P red[1] O
*I *2350:LO O *D sky130_fd_sc_hd__conb_1
*CAP
1 red[1] 0.00176359
2 *2350:LO 0.00176359
3 red[1] red[2] 0.000118812
4 red[1] *1922:A 4.61701e-06
5 red[1] *1922:C 0.000255147
6 red[1] *1925:B1 0.000329664
7 red[1] *2044:D 1.13043e-05
8 red[1] *658:6 2.52774e-05
9 red[1] *658:21 2.38126e-05
10 red[0] red[1] 0.000120397
*RES
1 *2350:LO red[1] 13.1848 
*END

*D_NET *124 0.00524877
*CONN
*P red[2] O
*I *2351:LO O *D sky130_fd_sc_hd__conb_1
*CAP
1 red[2] 0.00213181
2 *2351:LO 0.00213181
3 red[2] red[3] 8.18377e-05
4 red[2] red[4] 0
5 red[2] *1914:B1 0.000334281
6 red[2] *1918:B 5.87974e-05
7 red[2] *2011:A 0
8 red[2] *169:18 0.000260176
9 red[2] *521:31 0.000104464
10 red[2] *647:12 0
11 red[0] red[2] 2.6784e-05
12 red[1] red[2] 0.000118812
*RES
1 *2351:LO red[2] 9.9888 
*END

*D_NET *125 0.00430654
*CONN
*P red[3] O
*I *2352:LO O *D sky130_fd_sc_hd__conb_1
*CAP
1 red[3] 0.00191486
2 *2352:LO 0.00191486
3 red[3] red[4] 8.02872e-05
4 red[3] red[5] 0.000249166
5 red[3] red[6] 0
6 red[3] *2045:D 0
7 green[0] red[3] 4.01868e-05
8 green[1] red[3] 2.53327e-05
9 red[2] red[3] 8.18377e-05
*RES
1 *2352:LO red[3] 10.2776 
*END

*D_NET *126 0.00474124
*CONN
*P red[4] O
*I *2353:LO O *D sky130_fd_sc_hd__conb_1
*CAP
1 red[4] 0.0022615
2 *2353:LO 0.0022615
3 red[4] red[5] 8.77344e-05
4 red[4] *1915:A1 0
5 red[4] *1918:B 0
6 red[4] *2040:D 5.02154e-05
7 red[4] *688:68 0
8 red[2] red[4] 0
9 red[3] red[4] 8.02872e-05
*RES
1 *2353:LO red[4] 9.13093 
*END

*D_NET *127 0.00221307
*CONN
*P red[5] O
*I *2354:LO O *D sky130_fd_sc_hd__conb_1
*CAP
1 red[5] 0.000900653
2 *2354:LO 0.000900653
3 red[5] *2045:D 7.48613e-05
4 red[3] red[5] 0.000249166
5 red[4] red[5] 8.77344e-05
*RES
1 *2354:LO red[5] 7.0992 
*END

*D_NET *128 0.00268039
*CONN
*P red[6] O
*I *2355:LO O *D sky130_fd_sc_hd__conb_1
*CAP
1 red[6] 0.00113734
2 *2355:LO 0.00113734
3 red[6] red[7] 0.000113106
4 green[0] red[6] 6.15576e-06
5 green[1] red[6] 0.000286457
6 red[3] red[6] 0
*RES
1 *2355:LO red[6] 14.8591 
*END

*D_NET *129 0.00135585
*CONN
*P red[7] O
*I *2356:LO O *D sky130_fd_sc_hd__conb_1
*CAP
1 red[7] 0.000621372
2 *2356:LO 0.000621372
3 red[6] red[7] 0.000113106
*RES
1 *2356:LO red[7] 14.1962 
*END

*D_NET *130 0.000853683
*CONN
*P reset I
*I *2253:A I *D sky130_fd_sc_hd__clkdlybuf4s25_1
*CAP
1 reset 0.000345147
2 *2253:A 0.000345147
3 mem_addr[0] *2253:A 8.16947e-05
4 *13:12 *2253:A 8.16947e-05
*RES
1 reset *2253:A 9.31043 
*END

*D_NET *131 0.00152378
*CONN
*I *2175:A I *D sky130_fd_sc_hd__dlygate4sd3_1
*I *1843:Y O *D sky130_fd_sc_hd__a21boi_2
*CAP
1 *2175:A 0.00029238
2 *1843:Y 0.00029238
3 *2175:A *1741:A1 0.000201508
4 *2175:A *1796:A 2.49909e-05
5 *2175:A *1843:A2 2.87433e-05
6 *2175:A *2056:CLK 0.000119873
7 *2175:A *2056:RESET_B 2.99518e-06
8 *2175:A *552:62 0
9 *2175:A *556:82 0.000235573
10 *2175:A *716:6 0.000122331
11 *2175:A *716:8 0.00015639
12 *2175:A *716:10 4.66108e-05
*RES
1 *1843:Y *2175:A 14.295 
*END

*D_NET *132 0.0017213
*CONN
*I *2170:A I *D sky130_fd_sc_hd__dlygate4sd3_1
*I *1842:Y O *D sky130_fd_sc_hd__a21oi_2
*CAP
1 *2170:A 0.0004622
2 *1842:Y 0.0004622
3 *2170:A *1605:A 0.000112349
4 *2170:A *1640:A1 6.71882e-05
5 *2170:A *1643:B1 4.41363e-05
6 *2170:A *1778:A2 7.10015e-05
7 *2170:A *1779:B1_N 0.00028589
8 *2170:A *2015:D 6.5525e-05
9 *2170:A *2082:D 2.04531e-05
10 *2170:A *346:21 2.53191e-06
11 *2170:A *347:10 0.000116165
12 *2170:A *538:65 0
13 *2170:A *538:76 0
14 *2170:A *707:21 1.16578e-05
*RES
1 *1842:Y *2170:A 15.795 
*END

*D_NET *133 0.00174095
*CONN
*I *2183:A I *D sky130_fd_sc_hd__dlygate4sd3_1
*I *1831:A I *D sky130_fd_sc_hd__nor2_2
*I *1774:Y O *D sky130_fd_sc_hd__a21boi_2
*CAP
1 *2183:A 0.000192823
2 *1831:A 0.000257448
3 *1774:Y 0
4 *133:4 0.000450271
5 *1831:A *1712:A1 1.4399e-05
6 *1831:A *1719:B 6.36656e-05
7 *1831:A *1720:B1_N 0
8 *1831:A *1831:B 6.64712e-05
9 *1831:A *413:31 0.000286635
10 *1831:A *471:12 0.000193801
11 *2183:A *1712:A1 1.17309e-05
12 *2183:A *1774:A2 0.000120655
13 *2183:A *579:12 8.30487e-05
*RES
1 *1774:Y *133:4 1.6 
2 *133:4 *1831:A 11.66 
3 *133:4 *2183:A 4.825 
*END

*D_NET *134 0.000600103
*CONN
*I *2090:D I *D sky130_fd_sc_hd__dfrtp_2
*I *1841:X O *D sky130_fd_sc_hd__and2_2
*CAP
1 *2090:D 0.000223849
2 *1841:X 0.000223849
3 *2090:D *2055:CLK 5.99925e-05
4 *2090:D *2059:RESET_B 0
5 *2090:D *551:78 9.24127e-05
*RES
1 *1841:X *2090:D 11.265 
*END

*D_NET *135 0.000376017
*CONN
*I *2094:D I *D sky130_fd_sc_hd__dfstp_2
*I *1797:X O *D sky130_fd_sc_hd__a211o_2
*CAP
1 *2094:D 7.26845e-05
2 *1797:X 7.26845e-05
3 *2094:D *1796:A 4.66108e-05
4 *2094:D *426:22 6.5525e-05
5 *2094:D *692:78 0.000118513
*RES
1 *1797:X *2094:D 9.03 
*END

*D_NET *136 0.000433232
*CONN
*I *2096:D I *D sky130_fd_sc_hd__dfrtp_2
*I *1795:X O *D sky130_fd_sc_hd__a21bo_2
*CAP
1 *2096:D 0.000155206
2 *1795:X 0.000155206
3 *2096:D *1985:A 0
4 *2096:D *2096:CLK 0
5 *2096:D *2162:A 0.000122821
*RES
1 *1795:X *2096:D 9.465 
*END

*D_NET *137 0.000198895
*CONN
*I *2098:D I *D sky130_fd_sc_hd__dfrtp_2
*I *1794:X O *D sky130_fd_sc_hd__a211o_2
*CAP
1 *2098:D 3.22547e-05
2 *1794:X 3.22547e-05
3 *2098:D *556:88 9.5433e-05
4 *2098:D *694:27 3.89528e-05
*RES
1 *1794:X *2098:D 8.325 
*END

*D_NET *138 0.000771309
*CONN
*I *2092:D I *D sky130_fd_sc_hd__dfrtp_2
*I *1792:X O *D sky130_fd_sc_hd__and2_2
*CAP
1 *2092:D 0.000189105
2 *1792:X 0.000189105
3 *2092:D *1743:A1 0.000148424
4 *2092:D *1792:B 0.000159755
5 *2092:D *694:8 8.49205e-05
6 *2092:D *701:57 0
*RES
1 *1792:X *2092:D 11.415 
*END

*D_NET *139 0.000213344
*CONN
*I *2215:A I *D sky130_fd_sc_hd__dlygate4sd3_1
*I *1791:X O *D sky130_fd_sc_hd__a21o_2
*CAP
1 *2215:A 5.22864e-05
2 *1791:X 5.22864e-05
3 *2215:A *1791:B1 8.8266e-05
4 *2215:A *1793:B 2.05056e-05
*RES
1 *1791:X *2215:A 4.34 
*END

*D_NET *140 0.00111268
*CONN
*I *2087:D I *D sky130_fd_sc_hd__dfstp_2
*I *1790:X O *D sky130_fd_sc_hd__or3b_2
*CAP
1 *2087:D 0.000270774
2 *1790:X 0.000270774
3 *2087:D *1610:A 0.000240149
4 *2087:D *1790:A 7.70158e-05
5 *2087:D *415:12 7.03276e-05
6 *2087:D *544:77 0.000104196
7 *2087:D *731:12 7.94442e-05
*RES
1 *1790:X *2087:D 13.035 
*END

*D_NET *141 0.000762456
*CONN
*I *2089:D I *D sky130_fd_sc_hd__dfrtp_2
*I *1789:Y O *D sky130_fd_sc_hd__o21bai_2
*CAP
1 *2089:D 0.000229103
2 *1789:Y 0.000229103
3 *2089:D *1713:B1 4.66108e-05
4 *2089:D *1788:B1 0.00010141
5 *2089:D *413:41 2.68526e-05
6 *2089:D *733:20 0.000129376
*RES
1 *1789:Y *2089:D 11.775 
*END

*D_NET *142 0.000796458
*CONN
*I *2091:D I *D sky130_fd_sc_hd__dfrtp_2
*I *1788:X O *D sky130_fd_sc_hd__a221o_2
*CAP
1 *2091:D 0.000245206
2 *1788:X 0.000245206
3 *2091:D *1788:B1 0.000215732
4 *2091:D *445:18 9.03138e-05
5 *2091:D *535:43 0
*RES
1 *1788:X *2091:D 11.505 
*END

*D_NET *143 0.000430052
*CONN
*I *2085:D I *D sky130_fd_sc_hd__dfrtp_2
*I *1781:X O *D sky130_fd_sc_hd__and2b_2
*CAP
1 *2085:D 9.80266e-05
2 *1781:X 9.80266e-05
3 *2085:D *1625:B 4.41506e-05
4 *2085:D *1760:A1 9.40874e-05
5 *2085:D *555:80 9.57611e-05
*RES
1 *1781:X *2085:D 9.12 
*END

*D_NET *144 0.000776687
*CONN
*I *2086:D I *D sky130_fd_sc_hd__dfrtp_2
*I *1780:X O *D sky130_fd_sc_hd__or2_2
*CAP
1 *2086:D 0.000282737
2 *1780:X 0.000282737
3 *2086:D *1780:A 3.23663e-05
4 *2086:D *1780:B 4.82863e-05
5 *2086:D *2086:CLK 5.42473e-05
6 *2086:D *2242:A 7.63125e-05
*RES
1 *1780:X *2086:D 12.045 
*END

*D_NET *145 0.000514934
*CONN
*I *2015:D I *D sky130_fd_sc_hd__dfstp_2
*I *1779:X O *D sky130_fd_sc_hd__a21bo_2
*CAP
1 *2015:D 0.000190854
2 *1779:X 0.000190854
3 *2015:D *1779:B1_N 2.75229e-05
4 *2015:D *2016:CLK 4.01778e-05
5 *2015:D *538:65 0
6 *2015:D *538:76 0
7 *2170:A *2015:D 6.5525e-05
*RES
1 *1779:X *2015:D 10.065 
*END

*D_NET *146 0.000286548
*CONN
*I *2016:D I *D sky130_fd_sc_hd__dfrtp_2
*I *1778:X O *D sky130_fd_sc_hd__a22o_2
*CAP
1 *2016:D 0.000143274
2 *1778:X 0.000143274
3 *2016:D *1778:B2 0
4 *2016:D *701:74 0
*RES
1 *1778:X *2016:D 9.345 
*END

*D_NET *147 0.000711062
*CONN
*I *2013:D I *D sky130_fd_sc_hd__dfstp_2
*I *1777:X O *D sky130_fd_sc_hd__a21o_2
*CAP
1 *2013:D 0.000274149
2 *1777:X 0.000274149
3 *2013:D *341:12 4.11678e-06
4 *2013:D *341:31 3.1562e-06
5 *2013:D *778:10 2.12738e-05
6 *2013:D *778:25 4.77757e-05
7 *2013:D *778:36 8.64421e-05
*RES
1 *1777:X *2013:D 10.755 
*END

*D_NET *148 0.000244642
*CONN
*I *2014:D I *D sky130_fd_sc_hd__dfrtp_2
*I *1776:X O *D sky130_fd_sc_hd__or2_2
*CAP
1 *2014:D 0.000122321
2 *1776:X 0.000122321
3 *2014:D *2029:CLK 0
*RES
1 *1776:X *2014:D 9.03 
*END

*D_NET *149 0.000355155
*CONN
*I *2105:D I *D sky130_fd_sc_hd__dfrtp_2
*I *1618:Y O *D sky130_fd_sc_hd__inv_2
*CAP
1 *2105:D 0.000148755
2 *1618:Y 0.000148755
3 *2105:D *1618:A 3.64998e-06
4 *2105:D *2105:CLK 5.39961e-05
5 *2105:D *2220:A 0
6 *2105:D *535:351 0
*RES
1 *1618:Y *2105:D 9.54 
*END

*D_NET *150 0.00116273
*CONN
*I *2115:D I *D sky130_fd_sc_hd__dfrtp_2
*I *1820:X O *D sky130_fd_sc_hd__xor2_2
*CAP
1 *2115:D 0.00024141
2 *1820:X 0.00024141
3 *2115:D *1822:B1 2.49909e-05
4 *2115:D *2117:CLK 0.000206501
5 *2115:D *2189:A 0.000269339
6 *2115:D *535:233 2.21697e-05
7 *2115:D *696:38 0.000156911
*RES
1 *1820:X *2115:D 13.17 
*END

*D_NET *151 0.000597586
*CONN
*I *2116:D I *D sky130_fd_sc_hd__dfrtp_2
*I *1823:Y O *D sky130_fd_sc_hd__nor2_2
*CAP
1 *2116:D 0.000112057
2 *1823:Y 0.000112057
3 *2116:D *1821:A 6.76976e-05
4 *2116:D *1821:B 0.000196376
5 *2116:D *1823:A 5.30673e-05
6 *2116:D *539:35 5.63318e-05
*RES
1 *1823:Y *2116:D 10.665 
*END

*D_NET *152 0.000613738
*CONN
*I *2117:D I *D sky130_fd_sc_hd__dfrtp_2
*I *1824:X O *D sky130_fd_sc_hd__xor2_2
*CAP
1 *2117:D 0.000186799
2 *1824:X 0.000186799
3 *2117:D *1655:C 8.37327e-05
4 *2117:D *2117:RESET_B 0.000156408
*RES
1 *1824:X *2117:D 10.92 
*END

*D_NET *153 0.000352441
*CONN
*I *2118:D I *D sky130_fd_sc_hd__dfrtp_2
*I *1827:Y O *D sky130_fd_sc_hd__nor2_2
*CAP
1 *2118:D 3.78722e-05
2 *1827:Y 3.78722e-05
3 *2118:D *468:14 0.000135792
4 *2118:D *685:26 0.000140905
*RES
1 *1827:Y *2118:D 8.835 
*END

*D_NET *154 0.000530866
*CONN
*I *2119:D I *D sky130_fd_sc_hd__dfrtp_2
*I *1829:X O *D sky130_fd_sc_hd__xor2_2
*CAP
1 *2119:D 8.72148e-05
2 *1829:X 8.72148e-05
3 *2119:D *1828:A 2.49909e-05
4 *2119:D *2118:CLK 4.66108e-05
5 *2119:D *548:12 8.00399e-05
6 *2119:D *688:60 0.000204795
*RES
1 *1829:X *2119:D 10.05 
*END

*D_NET *155 0.000321819
*CONN
*I *2120:D I *D sky130_fd_sc_hd__dfrtp_2
*I *1830:Y O *D sky130_fd_sc_hd__xnor2_2
*CAP
1 *2120:D 4.96876e-05
2 *1830:Y 4.96876e-05
3 *2120:D *1803:A2 4.28112e-06
4 *2120:D *548:58 5.78969e-05
5 *2120:D *688:60 0.000160266
*RES
1 *1830:Y *2120:D 9.09 
*END

*D_NET *156 0.000344145
*CONN
*I *2106:D I *D sky130_fd_sc_hd__dfrtp_2
*I *1802:X O *D sky130_fd_sc_hd__xor2_2
*CAP
1 *2106:D 6.75436e-05
2 *1802:X 6.75436e-05
3 *2106:D *1913:B1 0.000118527
4 *2106:D *2192:A 2.49909e-05
5 *2106:D *740:44 6.55406e-05
*RES
1 *1802:X *2106:D 9.03 
*END

*D_NET *157 0.00113282
*CONN
*I *2107:D I *D sky130_fd_sc_hd__dfrtp_2
*I *1804:Y O *D sky130_fd_sc_hd__nor2_2
*CAP
1 *2107:D 0.000288805
2 *1804:Y 0.000288805
3 *2107:D *1649:A 4.82919e-05
4 *2107:D *1651:C 5.2397e-05
5 *2107:D *1651:D 8.64421e-05
6 *2107:D *1804:B 6.43286e-05
7 *2107:D *549:12 5.23362e-05
8 *2107:D *549:16 5.83121e-06
9 *2107:D *549:40 0.000141606
10 *2107:D *747:25 0.000103974
*RES
1 *1804:Y *2107:D 13.35 
*END

*D_NET *158 0.00102789
*CONN
*I *2108:D I *D sky130_fd_sc_hd__dfrtp_2
*I *1805:X O *D sky130_fd_sc_hd__xor2_2
*CAP
1 *2108:D 0.000416717
2 *1805:X 0.000416717
3 *2108:D *1619:A 0
4 *2108:D *1924:A1 5.83121e-06
5 *2108:D *2108:RESET_B 2.3937e-05
6 *2108:D *670:70 0.000164686
*RES
1 *1805:X *2108:D 14.025 
*END

*D_NET *159 0.000392422
*CONN
*I *2109:D I *D sky130_fd_sc_hd__dfrtp_2
*I *1806:Y O *D sky130_fd_sc_hd__xnor2_2
*CAP
1 *2109:D 0.000107543
2 *1806:Y 0.000107543
3 *2109:D *1651:C 2.46089e-05
4 *2109:D *2109:CLK 5.83121e-06
5 *2109:D *549:40 9.30717e-05
6 *2109:D *749:8 4.66108e-05
7 *2109:D *749:21 7.21296e-06
*RES
1 *1806:Y *2109:D 9.225 
*END

*D_NET *160 0.000816653
*CONN
*I *2110:D I *D sky130_fd_sc_hd__dfrtp_2
*I *1809:Y O *D sky130_fd_sc_hd__nor3_2
*CAP
1 *2110:D 0.000152939
2 *1809:Y 0.000152939
3 *2110:D *1928:B 0.000197826
4 *2110:D *549:68 0.000156474
5 *2110:D *687:70 0.000156474
*RES
1 *1809:Y *2110:D 11.265 
*END

*D_NET *161 0.000364264
*CONN
*I *2111:D I *D sky130_fd_sc_hd__dfrtp_2
*I *1812:X O *D sky130_fd_sc_hd__and2_2
*CAP
1 *2111:D 0.000121745
2 *1812:X 0.000121745
3 *2111:D *1813:A 8.53011e-05
4 *2111:D *2112:D 3.54721e-05
*RES
1 *1812:X *2111:D 9.12 
*END

*D_NET *162 0.00066519
*CONN
*I *2112:D I *D sky130_fd_sc_hd__dfrtp_2
*I *1813:Y O *D sky130_fd_sc_hd__xnor2_2
*CAP
1 *2112:D 0.000202947
2 *1813:Y 0.000202947
3 *2112:D *1812:B 6.04287e-05
4 *2112:D *2111:CLK 9.53898e-05
5 *2112:D *459:58 6.44134e-05
6 *2112:D *752:10 3.59266e-06
7 *2112:D *752:84 0
8 *2111:D *2112:D 3.54721e-05
*RES
1 *1813:Y *2112:D 11.415 
*END

*D_NET *163 0.000194291
*CONN
*I *2113:D I *D sky130_fd_sc_hd__dfrtp_2
*I *1816:Y O *D sky130_fd_sc_hd__nor3_2
*CAP
1 *2113:D 4.7107e-05
2 *1816:Y 4.7107e-05
3 *2113:D *1658:B 9.71067e-05
4 *2113:D *1815:D 2.97004e-06
5 *2113:D *463:8 0
*RES
1 *1816:Y *2113:D 8.325 
*END

*D_NET *164 0.000892882
*CONN
*I *2114:D I *D sky130_fd_sc_hd__dfrtp_2
*I *1819:X O *D sky130_fd_sc_hd__o21a_2
*CAP
1 *2114:D 0.000279722
2 *1819:X 0.000279722
3 *2114:D *1819:B1 7.89767e-05
4 *2114:D *2114:RESET_B 0.000112855
5 *2114:D *366:10 0.000141606
*RES
1 *1819:X *2114:D 12.735 
*END

*D_NET *165 0.000598559
*CONN
*I *2104:D I *D sky130_fd_sc_hd__dfrtp_2
*I *1800:X O *D sky130_fd_sc_hd__and2_2
*CAP
1 *2104:D 0.000217635
2 *1800:X 0.000217635
3 *2104:D *2103:D 0
4 *2104:D *335:23 0
5 *2104:D *341:31 1.16646e-05
6 *2104:D *684:10 0.000151624
*RES
1 *1800:X *2104:D 11.16 
*END

*D_NET *166 0.000290763
*CONN
*I *2102:D I *D sky130_fd_sc_hd__dfstp_2
*I *1798:X O *D sky130_fd_sc_hd__a21o_2
*CAP
1 *2102:D 0.000128098
2 *1798:X 0.000128098
3 *2102:D *535:209 0
4 *2102:D *539:18 3.45679e-05
5 *2102:D *708:10 0
*RES
1 *1798:X *2102:D 9.375 
*END

*D_NET *167 0.00084593
*CONN
*I *2101:D I *D sky130_fd_sc_hd__dfstp_2
*I *1799:X O *D sky130_fd_sc_hd__a21o_2
*CAP
1 *2101:D 0.000308794
2 *1799:X 0.000308794
3 *2101:D *2101:SET_B 3.05295e-05
4 *2101:D *535:209 7.45881e-05
5 *2101:D *539:18 0
6 *2101:D *539:20 0.000123225
*RES
1 *1799:X *2101:D 12.66 
*END

*D_NET *168 0.000198718
*CONN
*I *2103:D I *D sky130_fd_sc_hd__dfrtp_2
*I *1801:X O *D sky130_fd_sc_hd__and2_2
*CAP
1 *2103:D 5.19862e-05
2 *1801:X 5.19862e-05
3 *2103:D *335:23 9.47454e-05
4 *2104:D *2103:D 0
*RES
1 *1801:X *2103:D 8.325 
*END

*D_NET *169 0.0155893
*CONN
*I *1931:A I *D sky130_fd_sc_hd__and3_2
*I *1922:A I *D sky130_fd_sc_hd__and3_2
*I *2012:RESET_B I *D sky130_fd_sc_hd__dfrtp_2
*I *1883:C1 I *D sky130_fd_sc_hd__o211a_2
*I *1875:C1 I *D sky130_fd_sc_hd__o211a_2
*I *1868:B1 I *D sky130_fd_sc_hd__o21ai_2
*I *1619:Y O *D sky130_fd_sc_hd__inv_2
*CAP
1 *1931:A 4.33179e-05
2 *1922:A 0.000429349
3 *2012:RESET_B 0.00104525
4 *1883:C1 0
5 *1875:C1 0.00034278
6 *1868:B1 0
7 *1619:Y 0
8 *169:79 0.000819882
9 *169:28 0.000382142
10 *169:26 0.000156237
11 *169:18 0.00503622
12 *169:6 0.00422131
13 *1875:C1 *1868:A2 0
14 *1875:C1 *1875:B1 1.75875e-05
15 *1875:C1 *2298:A 0.00010145
16 *1875:C1 *492:79 0.00010585
17 *1875:C1 *492:87 8.88715e-05
18 *1922:A *1922:C 2.68464e-05
19 *1922:A *1925:B1 1.06022e-05
20 *1922:A *2044:CLK 0.0001791
21 *1922:A *2044:D 4.04327e-05
22 *1922:A *2045:D 7.26545e-05
23 *1922:A *2122:SET_B 4.77757e-05
24 *1922:A *2284:A 0
25 *1922:A *658:36 9.83921e-06
26 *1922:A *660:6 0.00011201
27 *1922:A *660:27 0.000131028
28 *2012:RESET_B *1881:B 2.88063e-05
29 *2012:RESET_B *1887:D1 5.18356e-05
30 *2012:RESET_B *496:22 7.06865e-05
31 *2012:RESET_B *506:10 1.17616e-05
32 *2012:RESET_B *555:6 5.12336e-05
33 *169:18 *1914:B1 3.20321e-05
34 *169:18 *1924:A1 0.000152071
35 *169:18 *2011:A 0
36 *169:18 *2038:D 0.000134122
37 *169:18 *636:34 0.000150397
38 *169:26 *2025:D 1.81522e-05
39 *169:26 *496:54 3.96088e-05
40 *169:28 *492:79 8.40213e-05
41 *169:79 *1924:A1 0.000216278
42 *169:79 *1931:B 0.000119247
43 *169:79 *2046:D 0.00011881
44 *169:79 *2277:A 9.68247e-05
45 *169:79 *528:20 0.000195506
46 *169:79 *658:36 0.000170586
47 pcRegister[31] *1922:A 0.000161985
48 red[0] *169:18 0
49 red[1] *1922:A 4.61701e-06
50 red[2] *169:18 0.000260176
*RES
1 *1619:Y *169:6 3.6 
2 *169:6 *169:18 9.63257 
3 *169:18 *169:26 3.1129 
4 *169:26 *169:28 0.795 
5 *169:28 *1868:B1 1.6 
6 *169:28 *1875:C1 7.6 
7 *169:26 *1883:C1 1.6 
8 *169:18 *2012:RESET_B 8.66747 
9 *169:6 *169:79 10.865 
10 *169:79 *1922:A 15.305 
11 *169:79 *1931:A 2.47 
*END

*D_NET *170 0.000161922
*CONN
*I *2013:SET_B I *D sky130_fd_sc_hd__dfstp_2
*I *1932:Y O *D sky130_fd_sc_hd__inv_2
*CAP
1 *2013:SET_B 5.56994e-05
2 *1932:Y 5.56994e-05
3 *2013:SET_B *345:12 5.05228e-05
*RES
1 *1932:Y *2013:SET_B 6.725 
*END

*D_NET *171 0.000378566
*CONN
*I *2014:RESET_B I *D sky130_fd_sc_hd__dfrtp_2
*I *1933:Y O *D sky130_fd_sc_hd__inv_2
*CAP
1 *2014:RESET_B 0.000120675
2 *1933:Y 0.000120675
3 *2014:RESET_B *1776:B 0.000137215
*RES
1 *1933:Y *2014:RESET_B 7.94 
*END

*D_NET *172 0.000427655
*CONN
*I *2015:SET_B I *D sky130_fd_sc_hd__dfstp_2
*I *1934:Y O *D sky130_fd_sc_hd__inv_2
*CAP
1 *2015:SET_B 0.000175671
2 *1934:Y 0.000175671
3 *2015:SET_B *1779:A2 0
4 *2015:SET_B *1779:B1_N 7.63125e-05
5 *2015:SET_B *538:76 0
6 *2015:SET_B *701:74 0
*RES
1 *1934:Y *2015:SET_B 8.765 
*END

*D_NET *173 0.000245138
*CONN
*I *2016:RESET_B I *D sky130_fd_sc_hd__dfrtp_2
*I *1935:Y O *D sky130_fd_sc_hd__inv_2
*CAP
1 *2016:RESET_B 0.000122569
2 *1935:Y 0.000122569
*RES
1 *1935:Y *2016:RESET_B 7.175 
*END

*D_NET *174 0.000287489
*CONN
*I *2047:RESET_B I *D sky130_fd_sc_hd__dfrtp_2
*I *1936:Y O *D sky130_fd_sc_hd__inv_2
*CAP
1 *2047:RESET_B 9.54531e-05
2 *1936:Y 9.54531e-05
3 *2047:RESET_B *1754:B2 4.88074e-05
4 *2047:RESET_B *557:22 4.77757e-05
*RES
1 *1936:Y *2047:RESET_B 7.175 
*END

*D_NET *175 0.000737081
*CONN
*I *2048:RESET_B I *D sky130_fd_sc_hd__dfrtp_2
*I *1937:Y O *D sky130_fd_sc_hd__inv_2
*CAP
1 *2048:RESET_B 0.000242477
2 *1937:Y 0.000242477
3 *2048:RESET_B *2162:A 1.19028e-05
4 *2048:RESET_B *2258:A 7.34042e-05
5 *2048:RESET_B *557:14 8.15223e-05
6 *2048:RESET_B *689:44 8.52972e-05
*RES
1 *1937:Y *2048:RESET_B 9.7175 
*END

*D_NET *176 0.00111398
*CONN
*I *2049:RESET_B I *D sky130_fd_sc_hd__dfrtp_2
*I *1938:Y O *D sky130_fd_sc_hd__inv_2
*CAP
1 *2049:RESET_B 0.000207934
2 *1938:Y 0.000207934
3 *2049:RESET_B *1737:A 4.66108e-05
4 *2049:RESET_B *1737:B 8.23457e-05
5 *2049:RESET_B *1739:A 0.000179071
6 *2049:RESET_B *2096:CLK 9.05349e-05
7 *2049:RESET_B *537:28 9.59187e-05
8 *2049:RESET_B *553:8 0.000203627
9 *2049:RESET_B *692:42 0
*RES
1 *1938:Y *2049:RESET_B 11.4725 
*END

*D_NET *177 0.000283302
*CONN
*I *2050:RESET_B I *D sky130_fd_sc_hd__dfrtp_2
*I *1939:Y O *D sky130_fd_sc_hd__inv_2
*CAP
1 *2050:RESET_B 0.000104055
2 *1939:Y 0.000104055
3 *2050:RESET_B *535:154 7.51913e-05
4 *2050:RESET_B *690:75 0
*RES
1 *1939:Y *2050:RESET_B 7.49 
*END

*D_NET *178 0.00073594
*CONN
*I *2051:RESET_B I *D sky130_fd_sc_hd__dfrtp_2
*I *1940:Y O *D sky130_fd_sc_hd__inv_2
*CAP
1 *2051:RESET_B 0.000192898
2 *1940:Y 0.000192898
3 *2051:RESET_B *1747:B 4.21973e-05
4 *2051:RESET_B *1747:C 8.65905e-05
5 *2051:RESET_B *712:12 4.21973e-05
6 *2051:RESET_B *713:16 8.08153e-06
7 *2051:RESET_B *714:36 0.000162769
8 *2051:RESET_B *714:40 8.30853e-06
*RES
1 *1940:Y *2051:RESET_B 9.3575 
*END

*D_NET *179 0.00104016
*CONN
*I *2052:RESET_B I *D sky130_fd_sc_hd__dfrtp_2
*I *1941:Y O *D sky130_fd_sc_hd__inv_2
*CAP
1 *2052:RESET_B 0.000269848
2 *1941:Y 0.000269848
3 *2052:RESET_B *1744:A 0.000115815
4 *2052:RESET_B *1783:A2 1.0397e-05
5 *2052:RESET_B *442:10 0.00013629
6 *2052:RESET_B *446:12 0
7 *2052:RESET_B *450:12 6.90254e-05
8 *2052:RESET_B *535:15 8.07403e-05
9 *2052:RESET_B *535:33 4.0423e-05
10 *2052:RESET_B *551:18 4.77769e-05
11 *2052:RESET_B *731:124 0
*RES
1 *1941:Y *2052:RESET_B 11.255 
*END

*D_NET *180 0.000251484
*CONN
*I *2053:RESET_B I *D sky130_fd_sc_hd__dfrtp_2
*I *1942:Y O *D sky130_fd_sc_hd__inv_2
*CAP
1 *2053:RESET_B 9.29274e-05
2 *1942:Y 9.29274e-05
3 *2053:RESET_B *1942:A 1.16578e-05
4 *2053:RESET_B *436:12 0
5 *2053:RESET_B *731:124 5.39718e-05
*RES
1 *1942:Y *2053:RESET_B 7.175 
*END

*D_NET *181 0.00121111
*CONN
*I *2054:RESET_B I *D sky130_fd_sc_hd__dfrtp_2
*I *1943:Y O *D sky130_fd_sc_hd__inv_2
*CAP
1 *2054:RESET_B 0.000299248
2 *1943:Y 0.000299248
3 *2054:RESET_B *1740:A1 0.000121039
4 *2054:RESET_B *1740:A2 0.000159722
5 *2054:RESET_B *1740:B1 0.000197243
6 *2054:RESET_B *407:12 0.000109532
7 *2054:RESET_B *692:14 2.50751e-05
*RES
1 *1943:Y *2054:RESET_B 12.245 
*END

*D_NET *182 0.000720749
*CONN
*I *2055:RESET_B I *D sky130_fd_sc_hd__dfrtp_2
*I *1944:Y O *D sky130_fd_sc_hd__inv_2
*CAP
1 *2055:RESET_B 0.000302457
2 *1944:Y 0.000302457
3 *2055:RESET_B *1944:A 0
4 *13:12 *2055:RESET_B 0.000115836
*RES
1 *1944:Y *2055:RESET_B 10.46 
*END

*D_NET *183 0.00131203
*CONN
*I *2056:RESET_B I *D sky130_fd_sc_hd__dfrtp_2
*I *1945:Y O *D sky130_fd_sc_hd__inv_2
*CAP
1 *2056:RESET_B 0.00049749
2 *1945:Y 0.00049749
3 *2056:RESET_B *1741:A1 0
4 *2056:RESET_B *1945:A 0.000171559
5 *2056:RESET_B *2174:A 4.71087e-05
6 *2056:RESET_B *552:62 4.7604e-05
7 *2056:RESET_B *692:78 4.77807e-05
8 *2175:A *2056:RESET_B 2.99518e-06
*RES
1 *1945:Y *2056:RESET_B 12.515 
*END

*D_NET *184 0.000275815
*CONN
*I *2057:RESET_B I *D sky130_fd_sc_hd__dfrtp_2
*I *1946:Y O *D sky130_fd_sc_hd__inv_2
*CAP
1 *2057:RESET_B 0.00010702
2 *1946:Y 0.00010702
3 *2057:RESET_B *1855:A2 2.01737e-05
4 *2057:RESET_B *447:30 4.16007e-05
*RES
1 *1946:Y *2057:RESET_B 7.43 
*END

*D_NET *185 0.00135412
*CONN
*I *2058:RESET_B I *D sky130_fd_sc_hd__dfrtp_2
*I *1947:Y O *D sky130_fd_sc_hd__inv_2
*CAP
1 *2058:RESET_B 0.000329607
2 *1947:Y 0.000329607
3 *2058:RESET_B *1730:A 2.86975e-05
4 *2058:RESET_B *2057:D 9.8269e-05
5 *2058:RESET_B *2058:CLK 2.86975e-05
6 *2058:RESET_B *2058:D 8.58063e-05
7 *2058:RESET_B *2156:A 0.000376129
8 *2058:RESET_B *544:77 7.73033e-05
*RES
1 *1947:Y *2058:RESET_B 13.0775 
*END

*D_NET *186 0.000486118
*CONN
*I *2059:RESET_B I *D sky130_fd_sc_hd__dfrtp_2
*I *1948:Y O *D sky130_fd_sc_hd__inv_2
*CAP
1 *2059:RESET_B 0.000189739
2 *1948:Y 0.000189739
3 *2059:RESET_B *1783:A2 0
4 *2059:RESET_B *1841:B 0
5 *2059:RESET_B *2090:RESET_B 9.428e-05
6 *2059:RESET_B *726:8 1.23607e-05
7 *2090:D *2059:RESET_B 0
*RES
1 *1948:Y *2059:RESET_B 9.1625 
*END

*D_NET *187 0.000180555
*CONN
*I *2060:RESET_B I *D sky130_fd_sc_hd__dfrtp_2
*I *1949:Y O *D sky130_fd_sc_hd__inv_2
*CAP
1 *2060:RESET_B 6.81847e-05
2 *1949:Y 6.81847e-05
3 *2060:RESET_B *1783:B2 4.41857e-05
*RES
1 *1949:Y *2060:RESET_B 6.98 
*END

*D_NET *188 0.000816188
*CONN
*I *2061:RESET_B I *D sky130_fd_sc_hd__dfrtp_2
*I *1950:Y O *D sky130_fd_sc_hd__inv_2
*CAP
1 *2061:RESET_B 0.000278403
2 *1950:Y 0.000278403
3 *2061:RESET_B *550:14 4.4073e-05
4 *2061:RESET_B *550:36 6.52906e-05
5 *2061:RESET_B *681:8 0
6 *2061:RESET_B *728:10 7.45708e-05
7 *2061:RESET_B *728:27 7.5448e-05
*RES
1 *1950:Y *2061:RESET_B 11.2325 
*END

*D_NET *189 0.000273562
*CONN
*I *2062:RESET_B I *D sky130_fd_sc_hd__dfrtp_2
*I *1951:Y O *D sky130_fd_sc_hd__inv_2
*CAP
1 *2062:RESET_B 0.000100454
2 *1951:Y 0.000100454
3 *2062:RESET_B *1951:A 5.83121e-06
4 *2062:RESET_B *2092:CLK 1.47347e-05
5 *2062:RESET_B *2162:A 5.2089e-05
6 *2062:RESET_B *407:12 0
*RES
1 *1951:Y *2062:RESET_B 7.175 
*END

*D_NET *190 0.00085927
*CONN
*I *2063:RESET_B I *D sky130_fd_sc_hd__dfrtp_2
*I *1952:Y O *D sky130_fd_sc_hd__inv_2
*CAP
1 *2063:RESET_B 0.00024396
2 *1952:Y 0.00024396
3 *2063:RESET_B *329:12 0
4 *2063:RESET_B *402:8 4.99619e-05
5 *2063:RESET_B *413:41 1.1561e-05
6 *2063:RESET_B *705:10 0.000181119
7 *2063:RESET_B *705:12 0.000117832
8 *2063:RESET_B *733:16 1.08758e-05
*RES
1 *1952:Y *2063:RESET_B 9.9575 
*END

*D_NET *191 0.000679127
*CONN
*I *2064:RESET_B I *D sky130_fd_sc_hd__dfrtp_2
*I *1953:Y O *D sky130_fd_sc_hd__inv_2
*CAP
1 *2064:RESET_B 0.000100615
2 *1953:Y 0.000100615
3 *2064:RESET_B *1855:B1 0.000190374
4 *2064:RESET_B *2064:D 0.00010905
5 *2064:RESET_B *659:14 8.61593e-05
6 *2064:RESET_B *678:18 5.51127e-05
7 *2064:RESET_B *678:20 3.72007e-05
*RES
1 *1953:Y *2064:RESET_B 9.2675 
*END

*D_NET *192 0.000357698
*CONN
*I *2065:RESET_B I *D sky130_fd_sc_hd__dfrtp_2
*I *1954:Y O *D sky130_fd_sc_hd__inv_2
*CAP
1 *2065:RESET_B 9.95528e-05
2 *1954:Y 9.95528e-05
3 *2065:RESET_B *2065:D 0
4 *2065:RESET_B *679:23 0.000158593
*RES
1 *1954:Y *2065:RESET_B 7.49 
*END

*D_NET *193 0.000452794
*CONN
*I *2066:RESET_B I *D sky130_fd_sc_hd__dfrtp_2
*I *1955:Y O *D sky130_fd_sc_hd__inv_2
*CAP
1 *2066:RESET_B 9.35068e-05
2 *1955:Y 9.35068e-05
3 *2066:RESET_B *1703:A 8.33711e-05
4 *2066:RESET_B *1703:B 9.18556e-05
5 *2066:RESET_B *696:80 9.05535e-05
*RES
1 *1955:Y *2066:RESET_B 7.52 
*END

*D_NET *194 0.000895101
*CONN
*I *2067:RESET_B I *D sky130_fd_sc_hd__dfrtp_2
*I *1956:Y O *D sky130_fd_sc_hd__inv_2
*CAP
1 *2067:RESET_B 0.000356447
2 *1956:Y 0.000356447
3 *2067:RESET_B *1956:A 7.3862e-05
4 *2067:RESET_B *2241:A 7.11365e-05
5 *2067:RESET_B *763:8 3.72081e-05
*RES
1 *1956:Y *2067:RESET_B 10.7525 
*END

*D_NET *195 0.000362908
*CONN
*I *2068:RESET_B I *D sky130_fd_sc_hd__dfrtp_2
*I *1957:Y O *D sky130_fd_sc_hd__inv_2
*CAP
1 *2068:RESET_B 0.0001148
2 *1957:Y 0.0001148
3 *2068:RESET_B *764:14 2.01644e-05
4 *2068:RESET_B *765:60 0.000113143
*RES
1 *1957:Y *2068:RESET_B 7.94 
*END

*D_NET *196 0.000242358
*CONN
*I *2069:RESET_B I *D sky130_fd_sc_hd__dfrtp_2
*I *1958:Y O *D sky130_fd_sc_hd__inv_2
*CAP
1 *2069:RESET_B 0.000101637
2 *1958:Y 0.000101637
3 *2069:RESET_B *542:73 3.32517e-05
4 *2069:RESET_B *699:58 5.83121e-06
*RES
1 *1958:Y *2069:RESET_B 7.175 
*END

*D_NET *197 0.000199645
*CONN
*I *2070:RESET_B I *D sky130_fd_sc_hd__dfrtp_2
*I *1959:Y O *D sky130_fd_sc_hd__inv_2
*CAP
1 *2070:RESET_B 5.31226e-05
2 *1959:Y 5.31226e-05
3 *2070:RESET_B *1959:A 9.33998e-05
4 *2070:RESET_B *699:58 0
*RES
1 *1959:Y *2070:RESET_B 6.725 
*END

*D_NET *198 0.000805529
*CONN
*I *2071:RESET_B I *D sky130_fd_sc_hd__dfrtp_2
*I *1960:Y O *D sky130_fd_sc_hd__inv_2
*CAP
1 *2071:RESET_B 0.000344338
2 *1960:Y 0.000344338
3 *2071:RESET_B *1688:B 0
4 *2071:RESET_B *2207:A 0.000116853
5 mem_wdata[21] *2071:RESET_B 0
6 mem_wdata[22] *2071:RESET_B 0
*RES
1 *1960:Y *2071:RESET_B 10.595 
*END

*D_NET *199 0.000197207
*CONN
*I *2072:RESET_B I *D sky130_fd_sc_hd__dfrtp_2
*I *1961:Y O *D sky130_fd_sc_hd__inv_2
*CAP
1 *2072:RESET_B 5.20705e-05
2 *1961:Y 5.20705e-05
3 *2072:RESET_B *699:32 0
4 *2072:RESET_B *700:46 9.30661e-05
*RES
1 *1961:Y *2072:RESET_B 6.725 
*END

*D_NET *200 0.000380683
*CONN
*I *2073:RESET_B I *D sky130_fd_sc_hd__dfrtp_2
*I *1962:Y O *D sky130_fd_sc_hd__inv_2
*CAP
1 *2073:RESET_B 0.000190342
2 *1962:Y 0.000190342
3 *2073:RESET_B *768:38 0
4 mem_wdata[14] *2073:RESET_B 0
*RES
1 *1962:Y *2073:RESET_B 8.705 
*END

*D_NET *201 0.000708387
*CONN
*I *2074:RESET_B I *D sky130_fd_sc_hd__dfrtp_2
*I *1963:Y O *D sky130_fd_sc_hd__inv_2
*CAP
1 *2074:RESET_B 0.000237642
2 *1963:Y 0.000237642
3 *2074:RESET_B *1683:B 0.000143266
4 *2074:RESET_B *696:61 7.63051e-05
5 *2074:RESET_B *696:80 1.35324e-05
*RES
1 *1963:Y *2074:RESET_B 9.9575 
*END

*D_NET *202 0.000730159
*CONN
*I *2075:RESET_B I *D sky130_fd_sc_hd__dfrtp_2
*I *1964:Y O *D sky130_fd_sc_hd__inv_2
*CAP
1 *2075:RESET_B 0.00014288
2 *1964:Y 0.00014288
3 *2075:RESET_B *1681:B1 0.000152824
4 *2075:RESET_B *1964:A 2.11178e-05
5 *2075:RESET_B *2075:D 9.00959e-05
6 *2075:RESET_B *2076:D 9.17697e-05
7 *2075:RESET_B *771:8 8.85917e-05
*RES
1 *1964:Y *2075:RESET_B 8.9525 
*END

*D_NET *203 0.000733083
*CONN
*I *2076:RESET_B I *D sky130_fd_sc_hd__dfrtp_2
*I *1965:Y O *D sky130_fd_sc_hd__inv_2
*CAP
1 *2076:RESET_B 0.000267595
2 *1965:Y 0.000267595
3 *2076:RESET_B *1671:B 0
4 *2076:RESET_B *2077:CLK 0.000131649
5 *2076:RESET_B *2077:D 0
6 *2076:RESET_B *2261:A 1.64056e-05
7 *2076:RESET_B *541:65 2.94928e-05
8 *2076:RESET_B *696:20 2.03459e-05
*RES
1 *1965:Y *2076:RESET_B 11.06 
*END

*D_NET *204 0.000346243
*CONN
*I *2077:RESET_B I *D sky130_fd_sc_hd__dfrtp_2
*I *1966:Y O *D sky130_fd_sc_hd__inv_2
*CAP
1 *2077:RESET_B 0.000158773
2 *1966:Y 0.000158773
3 *2077:RESET_B *2078:CLK 2.86975e-05
*RES
1 *1966:Y *2077:RESET_B 7.94 
*END

*D_NET *205 0.000302393
*CONN
*I *2078:RESET_B I *D sky130_fd_sc_hd__dfrtp_2
*I *1967:Y O *D sky130_fd_sc_hd__inv_2
*CAP
1 *2078:RESET_B 8.73906e-05
2 *1967:Y 8.73906e-05
3 *2078:RESET_B *1664:C 0
4 *2078:RESET_B *1965:A 0.000115954
5 *2078:RESET_B *698:27 1.16578e-05
*RES
1 *1967:Y *2078:RESET_B 7.175 
*END

*D_NET *206 0.000561279
*CONN
*I *2079:RESET_B I *D sky130_fd_sc_hd__dfrtp_2
*I *1968:Y O *D sky130_fd_sc_hd__inv_2
*CAP
1 *2079:RESET_B 0.000216931
2 *1968:Y 0.000216931
3 *2079:RESET_B *1664:A 0
4 *2079:RESET_B *1664:C 0
5 *2079:RESET_B *1670:B 0.000127416
6 *2079:RESET_B *2161:A 0
7 *2079:RESET_B *759:10 0
*RES
1 *1968:Y *2079:RESET_B 9.53 
*END

*D_NET *207 0.000307307
*CONN
*I *2080:RESET_B I *D sky130_fd_sc_hd__dfrtp_2
*I *1969:Y O *D sky130_fd_sc_hd__inv_2
*CAP
1 *2080:RESET_B 3.61232e-05
2 *1969:Y 3.61232e-05
3 *2080:RESET_B *1678:B 6.90254e-05
4 *2080:RESET_B *699:23 0.000114016
5 *2080:RESET_B *761:14 5.20193e-05
*RES
1 *1969:Y *2080:RESET_B 6.98 
*END

*D_NET *208 0.000159011
*CONN
*I *2081:RESET_B I *D sky130_fd_sc_hd__dfrtp_2
*I *1970:Y O *D sky130_fd_sc_hd__inv_2
*CAP
1 *2081:RESET_B 7.95053e-05
2 *1970:Y 7.95053e-05
3 *2081:RESET_B *1678:A 0
4 *2081:RESET_B *2181:A 0
5 mem_wdata[7] *2081:RESET_B 0
*RES
1 *1970:Y *2081:RESET_B 6.725 
*END

*D_NET *209 0.000152911
*CONN
*I *2082:SET_B I *D sky130_fd_sc_hd__dfstp_2
*I *1971:Y O *D sky130_fd_sc_hd__inv_2
*CAP
1 *2082:SET_B 5.6982e-05
2 *1971:Y 5.6982e-05
3 *13:12 *2082:SET_B 3.8947e-05
*RES
1 *1971:Y *2082:SET_B 6.725 
*END

*D_NET *210 0.000398819
*CONN
*I *2083:RESET_B I *D sky130_fd_sc_hd__dfrtp_2
*I *1972:Y O *D sky130_fd_sc_hd__inv_2
*CAP
1 *2083:RESET_B 0.000117571
2 *1972:Y 0.000117571
3 *2083:RESET_B *1935:A 0.00015897
4 *2083:RESET_B *1972:A 4.7072e-06
*RES
1 *1972:Y *2083:RESET_B 7.94 
*END

*D_NET *211 0.000554025
*CONN
*I *2084:RESET_B I *D sky130_fd_sc_hd__dfrtp_2
*I *1973:Y O *D sky130_fd_sc_hd__inv_2
*CAP
1 *2084:RESET_B 0.000142033
2 *1973:Y 0.000142033
3 *2084:RESET_B *1616:A 0
4 *2084:RESET_B *1973:A 0.000269959
5 *2084:RESET_B *2060:D 0
*RES
1 *1973:Y *2084:RESET_B 8.765 
*END

*D_NET *212 0.000755717
*CONN
*I *2085:RESET_B I *D sky130_fd_sc_hd__dfrtp_2
*I *1974:Y O *D sky130_fd_sc_hd__inv_2
*CAP
1 *2085:RESET_B 0.00025961
2 *1974:Y 0.00025961
3 *2085:RESET_B *1626:A 4.77807e-05
4 *2085:RESET_B *1626:C 0
5 *2085:RESET_B *1788:A2 0
6 *2085:RESET_B *1974:A 0.000104521
7 *2085:RESET_B *681:32 8.41957e-05
*RES
1 *1974:Y *2085:RESET_B 10.49 
*END

*D_NET *213 0.00109139
*CONN
*I *2086:RESET_B I *D sky130_fd_sc_hd__dfrtp_2
*I *1975:Y O *D sky130_fd_sc_hd__inv_2
*CAP
1 *2086:RESET_B 0.000380018
2 *1975:Y 0.000380018
3 *2086:RESET_B *1978:A 6.60888e-05
4 *2086:RESET_B *2141:A 4.40874e-05
5 *2086:RESET_B *2230:A 2.30184e-05
6 *2086:RESET_B *445:18 7.47005e-05
7 *2086:RESET_B *535:43 0.000123461
*RES
1 *1975:Y *2086:RESET_B 12.1925 
*END

*D_NET *214 0.000398873
*CONN
*I *2087:SET_B I *D sky130_fd_sc_hd__dfstp_2
*I *1976:Y O *D sky130_fd_sc_hd__inv_2
*CAP
1 *2087:SET_B 4.00162e-05
2 *1976:Y 4.00162e-05
3 *2087:SET_B *411:16 0.00015942
4 *2087:SET_B *680:14 0.00015942
*RES
1 *1976:Y *2087:SET_B 7.49 
*END

*D_NET *215 0.000598067
*CONN
*I *2088:RESET_B I *D sky130_fd_sc_hd__dfrtp_2
*I *1977:Y O *D sky130_fd_sc_hd__inv_2
*CAP
1 *2088:RESET_B 0.000124705
2 *1977:Y 0.000124705
3 *2088:RESET_B *449:12 0.000191166
4 *2088:RESET_B *579:12 6.55406e-05
5 *2088:RESET_B *681:8 9.19502e-05
*RES
1 *1977:Y *2088:RESET_B 9.53 
*END

*D_NET *216 0.00153484
*CONN
*I *2089:RESET_B I *D sky130_fd_sc_hd__dfrtp_2
*I *1978:Y O *D sky130_fd_sc_hd__inv_2
*CAP
1 *2089:RESET_B 0.000476868
2 *1978:Y 0.000476868
3 *2089:RESET_B *1857:A2 0.000119756
4 *2089:RESET_B *1881:A 9.37731e-05
5 *2089:RESET_B *1978:A 0.000135391
6 *2089:RESET_B *2240:A 9.30717e-05
7 *2089:RESET_B *487:8 1.83756e-05
8 *2089:RESET_B *733:8 0.000120741
*RES
1 *1978:Y *2089:RESET_B 13.0925 
*END

*D_NET *217 0.000575089
*CONN
*I *2090:RESET_B I *D sky130_fd_sc_hd__dfrtp_2
*I *1979:Y O *D sky130_fd_sc_hd__inv_2
*CAP
1 *2090:RESET_B 0.000193054
2 *1979:Y 0.000193054
3 *2090:RESET_B *690:75 9.47017e-05
4 *2059:RESET_B *2090:RESET_B 9.428e-05
*RES
1 *1979:Y *2090:RESET_B 8.975 
*END

*D_NET *218 0.000524636
*CONN
*I *2091:RESET_B I *D sky130_fd_sc_hd__dfrtp_2
*I *1980:Y O *D sky130_fd_sc_hd__inv_2
*CAP
1 *2091:RESET_B 0.000114988
2 *1980:Y 0.000114988
3 *2091:RESET_B *1978:A 0.000154895
4 *2091:RESET_B *2085:CLK 4.26581e-05
5 *2091:RESET_B *555:80 0
6 *2091:RESET_B *735:10 9.71067e-05
*RES
1 *1980:Y *2091:RESET_B 8.2325 
*END

*D_NET *219 0.00014939
*CONN
*I *2092:RESET_B I *D sky130_fd_sc_hd__dfrtp_2
*I *1981:Y O *D sky130_fd_sc_hd__inv_2
*CAP
1 *2092:RESET_B 5.79382e-05
2 *1981:Y 5.79382e-05
3 *2092:RESET_B *1792:B 0
4 *2092:RESET_B *701:57 3.35139e-05
*RES
1 *1981:Y *2092:RESET_B 6.725 
*END

*D_NET *220 0.000582609
*CONN
*I *2093:RESET_B I *D sky130_fd_sc_hd__dfrtp_2
*I *1982:Y O *D sky130_fd_sc_hd__inv_2
*CAP
1 *2093:RESET_B 0.000216972
2 *1982:Y 0.000216972
3 *2093:RESET_B *1791:B1 0.000136877
4 *2093:RESET_B *1951:A 9.60582e-07
5 *2093:RESET_B *553:34 0
6 *2093:RESET_B *692:46 3.81908e-06
7 *2093:RESET_B *692:59 7.00889e-06
*RES
1 *1982:Y *2093:RESET_B 9.215 
*END

*D_NET *221 0.000736381
*CONN
*I *2094:SET_B I *D sky130_fd_sc_hd__dfstp_2
*I *1983:Y O *D sky130_fd_sc_hd__inv_2
*CAP
1 *2094:SET_B 0.000118954
2 *1983:Y 0.000118954
3 *2094:SET_B *1797:C1 0.000210151
4 *2094:SET_B *426:43 0.000160641
5 *13:12 *2094:SET_B 0.000127682
*RES
1 *1983:Y *2094:SET_B 9.485 
*END

*D_NET *222 0.00100333
*CONN
*I *2095:RESET_B I *D sky130_fd_sc_hd__dfrtp_2
*I *1984:Y O *D sky130_fd_sc_hd__inv_2
*CAP
1 *2095:RESET_B 0.000227658
2 *1984:Y 0.000227658
3 *2095:RESET_B *2095:CLK 0.000180983
4 *2095:RESET_B *556:82 0.000367034
*RES
1 *1984:Y *2095:RESET_B 7.8775 
*END

*D_NET *223 0.000586098
*CONN
*I *2096:RESET_B I *D sky130_fd_sc_hd__dfrtp_2
*I *1985:Y O *D sky130_fd_sc_hd__inv_2
*CAP
1 *2096:RESET_B 0.000145542
2 *1985:Y 0.000145542
3 *2096:RESET_B *1714:B 0.000158112
4 *2096:RESET_B *1795:A2 0.000136901
*RES
1 *1985:Y *2096:RESET_B 8.63 
*END

*D_NET *224 0.000441356
*CONN
*I *2097:RESET_B I *D sky130_fd_sc_hd__dfrtp_2
*I *1986:Y O *D sky130_fd_sc_hd__inv_2
*CAP
1 *2097:RESET_B 0.000138335
2 *1986:Y 0.000138335
3 *2097:RESET_B *1986:A 0.000164686
4 *2097:RESET_B *538:76 0
*RES
1 *1986:Y *2097:RESET_B 8.2325 
*END

*D_NET *225 0.000147557
*CONN
*I *2098:RESET_B I *D sky130_fd_sc_hd__dfrtp_2
*I *1987:Y O *D sky130_fd_sc_hd__inv_2
*CAP
1 *2098:RESET_B 5.43023e-05
2 *1987:Y 5.43023e-05
3 *2098:RESET_B *1743:A1 3.89528e-05
4 *2098:RESET_B *694:27 0
*RES
1 *1987:Y *2098:RESET_B 6.725 
*END

*D_NET *226 0.000194432
*CONN
*I *2099:RESET_B I *D sky130_fd_sc_hd__dfrtp_2
*I *1988:Y O *D sky130_fd_sc_hd__inv_2
*CAP
1 *2099:RESET_B 3.27952e-05
2 *1988:Y 3.27952e-05
3 *2099:RESET_B *1988:A 9.37846e-05
4 *2099:RESET_B *731:109 3.50571e-05
*RES
1 *1988:Y *2099:RESET_B 6.725 
*END

*D_NET *227 0.000367939
*CONN
*I *2100:RESET_B I *D sky130_fd_sc_hd__dfrtp_2
*I *1989:Y O *D sky130_fd_sc_hd__inv_2
*CAP
1 *2100:RESET_B 0.000124118
2 *1989:Y 0.000124118
3 *2100:RESET_B *1989:A 3.75882e-06
4 *2100:RESET_B *550:36 0.000115945
*RES
1 *1989:Y *2100:RESET_B 8.03 
*END

*D_NET *228 0.000344948
*CONN
*I *2101:SET_B I *D sky130_fd_sc_hd__dfstp_2
*I *1990:Y O *D sky130_fd_sc_hd__inv_2
*CAP
1 *2101:SET_B 0.000157209
2 *1990:Y 0.000157209
3 *2101:SET_B *535:209 0
4 *2101:SET_B *539:10 0
5 *2101:SET_B *539:18 0
6 *2101:D *2101:SET_B 3.05295e-05
*RES
1 *1990:Y *2101:SET_B 8 
*END

*D_NET *229 0.000148222
*CONN
*I *2102:SET_B I *D sky130_fd_sc_hd__dfstp_2
*I *1991:Y O *D sky130_fd_sc_hd__inv_2
*CAP
1 *2102:SET_B 7.41109e-05
2 *1991:Y 7.41109e-05
3 *2102:SET_B *539:18 0
*RES
1 *1991:Y *2102:SET_B 6.725 
*END

*D_NET *230 0.000929649
*CONN
*I *2103:RESET_B I *D sky130_fd_sc_hd__dfrtp_2
*I *1992:Y O *D sky130_fd_sc_hd__inv_2
*CAP
1 *2103:RESET_B 0.000286867
2 *1992:Y 0.000286867
3 *2103:RESET_B *1621:B1 0
4 *2103:RESET_B *1622:B 0
5 *2103:RESET_B *1992:A 2.16917e-05
6 *2103:RESET_B *2159:A 4.19797e-05
7 *2103:RESET_B *2160:A 0
8 *2103:RESET_B *337:12 0.000229203
9 *2103:RESET_B *539:24 0
10 *2103:RESET_B *539:35 0
11 *2103:RESET_B *684:40 5.83121e-06
12 *2103:RESET_B *688:27 5.72091e-05
*RES
1 *1992:Y *2103:RESET_B 11.51 
*END

*D_NET *231 0.000464027
*CONN
*I *2104:RESET_B I *D sky130_fd_sc_hd__dfrtp_2
*I *1993:Y O *D sky130_fd_sc_hd__inv_2
*CAP
1 *2104:RESET_B 0.000134577
2 *1993:Y 0.000134577
3 *2104:RESET_B *2104:CLK 2.40101e-05
4 *2104:RESET_B *535:209 0
5 *2104:RESET_B *539:24 5.23362e-05
6 *2104:RESET_B *539:35 0.000118527
*RES
1 *1993:Y *2104:RESET_B 8.2325 
*END

*D_NET *232 0.000674255
*CONN
*I *2105:RESET_B I *D sky130_fd_sc_hd__dfrtp_2
*I *1994:Y O *D sky130_fd_sc_hd__inv_2
*CAP
1 *2105:RESET_B 0.000307775
2 *1994:Y 0.000307775
3 *2105:RESET_B *2105:CLK 0
4 *2105:RESET_B *2195:A 2.41231e-05
5 *2105:RESET_B *2220:A 3.45818e-05
*RES
1 *1994:Y *2105:RESET_B 10.805 
*END

*D_NET *233 0.000847175
*CONN
*I *2106:RESET_B I *D sky130_fd_sc_hd__dfrtp_2
*I *1995:Y O *D sky130_fd_sc_hd__inv_2
*CAP
1 *2106:RESET_B 0.000326522
2 *1995:Y 0.000326522
3 *2106:RESET_B *2219:A 0.000160314
4 *2106:RESET_B *747:6 3.3818e-05
*RES
1 *1995:Y *2106:RESET_B 6.4825 
*END

*D_NET *234 0.000648372
*CONN
*I *2107:RESET_B I *D sky130_fd_sc_hd__dfrtp_2
*I *1996:Y O *D sky130_fd_sc_hd__inv_2
*CAP
1 *2107:RESET_B 0.000146888
2 *1996:Y 0.000146888
3 *2107:RESET_B *1651:D 2.49909e-05
4 *2107:RESET_B *685:51 1.41165e-05
5 *2107:RESET_B *687:36 0.000158391
6 *2107:RESET_B *748:21 0.000157097
*RES
1 *1996:Y *2107:RESET_B 8.6825 
*END

*D_NET *235 0.000711556
*CONN
*I *2108:RESET_B I *D sky130_fd_sc_hd__dfrtp_2
*I *1997:Y O *D sky130_fd_sc_hd__inv_2
*CAP
1 *2108:RESET_B 0.000147086
2 *1997:Y 0.000147086
3 *2108:RESET_B *1619:A 9.30717e-05
4 *2108:RESET_B *2109:CLK 4.66742e-05
5 *2108:RESET_B *549:40 9.30717e-05
6 *2108:RESET_B *749:8 0.00016063
7 *2108:D *2108:RESET_B 2.3937e-05
*RES
1 *1997:Y *2108:RESET_B 9.1925 
*END

*D_NET *236 0.000516693
*CONN
*I *2109:RESET_B I *D sky130_fd_sc_hd__dfrtp_2
*I *1998:Y O *D sky130_fd_sc_hd__inv_2
*CAP
1 *2109:RESET_B 0.000141732
2 *1998:Y 0.000141732
3 *2109:RESET_B *1998:A 0.000197826
4 *2109:RESET_B *2121:D 3.54038e-05
*RES
1 *1998:Y *2109:RESET_B 4.0675 
*END

*D_NET *237 0.000632553
*CONN
*I *2110:RESET_B I *D sky130_fd_sc_hd__dfrtp_2
*I *1999:Y O *D sky130_fd_sc_hd__inv_2
*CAP
1 *2110:RESET_B 0.000196074
2 *1999:Y 0.000196074
3 *2110:RESET_B *1928:A_N 0.00012306
4 *2110:RESET_B *1928:B 8.97227e-05
5 *2110:RESET_B *1999:A 0
6 *2110:RESET_B *2122:D 2.7622e-05
*RES
1 *1999:Y *2110:RESET_B 8.555 
*END

*D_NET *238 0.000263817
*CONN
*I *2111:RESET_B I *D sky130_fd_sc_hd__dfrtp_2
*I *2000:Y O *D sky130_fd_sc_hd__inv_2
*CAP
1 *2111:RESET_B 8.82082e-05
2 *2000:Y 8.82082e-05
3 *2111:RESET_B *2001:A 8.06719e-05
4 *2111:RESET_B *700:84 6.72833e-06
*RES
1 *2000:Y *2111:RESET_B 7.175 
*END

*D_NET *239 0.00101937
*CONN
*I *2112:RESET_B I *D sky130_fd_sc_hd__dfrtp_2
*I *2001:Y O *D sky130_fd_sc_hd__inv_2
*CAP
1 *2112:RESET_B 0.000223972
2 *2001:Y 0.000223972
3 *2112:RESET_B *1814:A1 0.000210144
4 *2112:RESET_B *2001:A 0.000107608
5 *2112:RESET_B *752:84 0.000253671
*RES
1 *2001:Y *2112:RESET_B 12.02 
*END

*D_NET *240 0.000384873
*CONN
*I *2113:RESET_B I *D sky130_fd_sc_hd__dfrtp_2
*I *2002:Y O *D sky130_fd_sc_hd__inv_2
*CAP
1 *2113:RESET_B 0.000118302
2 *2002:Y 0.000118302
3 *2113:RESET_B *1660:A 0
4 *2113:RESET_B *371:6 1.1392e-05
5 *2113:RESET_B *673:10 0.000136877
*RES
1 *2002:Y *2113:RESET_B 7.685 
*END

*D_NET *241 0.00135631
*CONN
*I *2114:RESET_B I *D sky130_fd_sc_hd__dfrtp_2
*I *2003:Y O *D sky130_fd_sc_hd__inv_2
*CAP
1 *2114:RESET_B 0.000305567
2 *2003:Y 0.000305567
3 *2114:RESET_B *1825:C 1.82476e-05
4 *2114:RESET_B *2114:CLK 0.00030678
5 *2114:RESET_B *535:290 6.71882e-05
6 *2114:RESET_B *685:28 0.000207523
7 *2114:RESET_B *685:41 3.25831e-05
8 *2114:D *2114:RESET_B 0.000112855
*RES
1 *2003:Y *2114:RESET_B 12.5525 
*END

*D_NET *242 0.000597946
*CONN
*I *2115:RESET_B I *D sky130_fd_sc_hd__dfrtp_2
*I *2004:Y O *D sky130_fd_sc_hd__inv_2
*CAP
1 *2115:RESET_B 0.000210821
2 *2004:Y 0.000210821
3 *2115:RESET_B *535:233 0
4 *2115:RESET_B *696:38 0.000176305
*RES
1 *2004:Y *2115:RESET_B 9.53 
*END

*D_NET *243 0.000349245
*CONN
*I *2116:RESET_B I *D sky130_fd_sc_hd__dfrtp_2
*I *2005:Y O *D sky130_fd_sc_hd__inv_2
*CAP
1 *2116:RESET_B 0.000130868
2 *2005:Y 0.000130868
3 *2116:RESET_B *696:38 4.77807e-05
4 *2116:RESET_B *742:8 3.97285e-05
*RES
1 *2005:Y *2116:RESET_B 3.7225 
*END

*D_NET *244 0.000841735
*CONN
*I *2117:RESET_B I *D sky130_fd_sc_hd__dfrtp_2
*I *2006:Y O *D sky130_fd_sc_hd__inv_2
*CAP
1 *2117:RESET_B 0.000204945
2 *2006:Y 0.000204945
3 *2117:RESET_B *1655:C 1.82571e-05
4 *2117:RESET_B *1825:A 9.33213e-05
5 *2117:RESET_B *2006:A 2.49909e-05
6 *2117:RESET_B *535:290 1.17409e-05
7 *2117:RESET_B *743:21 6.06374e-05
8 *2117:RESET_B *743:32 6.64896e-05
9 *2117:D *2117:RESET_B 0.000156408
*RES
1 *2006:Y *2117:RESET_B 10.325 
*END

*D_NET *245 0.000351686
*CONN
*I *2118:RESET_B I *D sky130_fd_sc_hd__dfrtp_2
*I *2007:Y O *D sky130_fd_sc_hd__inv_2
*CAP
1 *2118:RESET_B 0.000151288
2 *2007:Y 0.000151288
3 *2118:RESET_B *1655:C 1.32907e-06
4 *2118:RESET_B *2007:A 4.77807e-05
*RES
1 *2007:Y *2118:RESET_B 3.7225 
*END

*D_NET *246 0.00101992
*CONN
*I *2119:RESET_B I *D sky130_fd_sc_hd__dfrtp_2
*I *2008:Y O *D sky130_fd_sc_hd__inv_2
*CAP
1 *2119:RESET_B 0.000298289
2 *2008:Y 0.000298289
3 *2119:RESET_B *2009:A 9.47017e-05
4 *2119:RESET_B *2120:RESET_B 0.000328646
*RES
1 *2008:Y *2119:RESET_B 11.015 
*END

*D_NET *247 0.00084373
*CONN
*I *2120:RESET_B I *D sky130_fd_sc_hd__dfrtp_2
*I *2009:Y O *D sky130_fd_sc_hd__inv_2
*CAP
1 *2120:RESET_B 0.000257542
2 *2009:Y 0.000257542
3 *2120:RESET_B *1830:B 0
4 *2120:RESET_B *2158:A 0
5 *2120:RESET_B *688:60 0
6 *2119:RESET_B *2120:RESET_B 0.000328646
*RES
1 *2009:Y *2120:RESET_B 10.805 
*END

*D_NET *248 0.0030822
*CONN
*I *2121:SET_B I *D sky130_fd_sc_hd__dfstp_2
*I *2010:Y O *D sky130_fd_sc_hd__inv_2
*CAP
1 *2121:SET_B 0.00101853
2 *2010:Y 0.00101853
3 *2121:SET_B *1650:A 1.09141e-05
4 *2121:SET_B *1650:B 0
5 *2121:SET_B *1811:B 4.77807e-05
6 *2121:SET_B *1925:A1 4.23428e-05
7 *2121:SET_B *1925:A3 0.000175279
8 *2121:SET_B *1928:A_N 0.000309231
9 *2121:SET_B *1930:A1 1.21068e-05
10 *2121:SET_B *1931:C 8.6267e-05
11 *2121:SET_B *2010:A 0.000288005
12 *2121:SET_B *361:12 1.67317e-05
13 *2121:SET_B *527:38 9.12494e-06
14 *2121:SET_B *549:55 4.73456e-05
*RES
1 *2010:Y *2121:SET_B 20.4125 
*END

*D_NET *249 0.00375846
*CONN
*I *2122:SET_B I *D sky130_fd_sc_hd__dfstp_2
*I *2011:Y O *D sky130_fd_sc_hd__inv_2
*CAP
1 *2122:SET_B 0.00111302
2 *2011:Y 0.00111302
3 *2122:SET_B *1919:A2 8.26035e-05
4 *2122:SET_B *1919:B1 9.81542e-06
5 *2122:SET_B *1924:B1 4.77807e-05
6 *2122:SET_B *1925:B1 0.000234342
7 *2122:SET_B *1926:A 0.000609399
8 *2122:SET_B *2044:D 6.88204e-05
9 *2122:SET_B *2288:A 0.000277591
10 *2122:SET_B *527:30 4.36751e-05
11 *2122:SET_B *527:38 2.53083e-05
12 Hsync *2122:SET_B 8.53011e-05
13 *1922:A *2122:SET_B 4.77757e-05
*RES
1 *2011:Y *2122:SET_B 23.6975 
*END

*D_NET *250 0.000460092
*CONN
*I *2012:D I *D sky130_fd_sc_hd__dfrtp_2
*I *1773:X O *D sky130_fd_sc_hd__and2_2
*CAP
1 *2012:D 0.000196852
2 *1773:X 0.000196852
3 *2012:D *1773:A 3.64998e-06
4 *2012:D *1788:B1 4.67415e-05
5 *2012:D *555:31 1.5996e-05
*RES
1 *1773:X *2012:D 9.81 
*END

*D_NET *251 0.000454748
*CONN
*I *2017:D I *D sky130_fd_sc_hd__dfxtp_2
*I *1845:X O *D sky130_fd_sc_hd__o21a_2
*CAP
1 *2017:D 0.000131303
2 *1845:X 0.000131303
3 *2017:D *1846:B1 4.99619e-05
4 *2017:D *1851:C 1.64141e-05
5 *2017:D *1855:A2 1.43717e-05
6 *2017:D *481:14 9.70237e-05
7 *2017:D *536:20 1.43717e-05
8 *2017:D *678:28 0
*RES
1 *1845:X *2017:D 9.67875 
*END

*D_NET *252 0.000474657
*CONN
*I *2018:D I *D sky130_fd_sc_hd__dfxtp_2
*I *1848:Y O *D sky130_fd_sc_hd__nor2_2
*CAP
1 *2018:D 8.37569e-05
2 *1848:Y 8.37569e-05
3 *2018:D *1848:A 6.88441e-05
4 *2018:D *1848:B 0.000128871
5 *2018:D *2018:CLK 0.000109428
*RES
1 *1848:Y *2018:D 6.29 
*END

*D_NET *253 0.000208565
*CONN
*I *2019:D I *D sky130_fd_sc_hd__dfxtp_2
*I *1851:Y O *D sky130_fd_sc_hd__nor3_2
*CAP
1 *2019:D 4.62338e-05
2 *1851:Y 4.62338e-05
3 *2019:D *1851:B 4.76051e-05
4 *2019:D *1851:C 4.93336e-05
5 *2019:D *1854:A 4.78698e-06
6 *2019:D *1855:B1 1.43717e-05
*RES
1 *1851:Y *2019:D 8.46375 
*END

*D_NET *254 0.00490717
*CONN
*I *2020:D I *D sky130_fd_sc_hd__dfxtp_2
*I *1855:X O *D sky130_fd_sc_hd__o21a_2
*CAP
1 *2020:D 0.00115837
2 *1855:X 0.00115837
3 *2020:D *1710:A2 0.000158066
4 *2020:D *1710:B1_N 8.23457e-05
5 *2020:D *1848:B 2.98587e-05
6 *2020:D *1852:B 8.23457e-05
7 *2020:D *1852:D 0.00043044
8 *2020:D *1855:A1 0.000449424
9 *2020:D *1855:A2 5.83121e-06
10 *2020:D *1855:B1 0.000186098
11 *2020:D *2020:CLK 8.07287e-05
12 *2020:D *2156:A 4.65188e-05
13 *2020:D *2286:A 7.66083e-05
14 *2020:D *2294:A 0.000114364
15 *2020:D *659:14 0.000160635
16 *2020:D *662:60 8.40269e-05
17 *2020:D *665:6 3.00957e-05
18 *2020:D *666:16 8.65257e-05
19 *2020:D *666:22 7.68414e-06
20 *2020:D *677:10 0.000158337
21 *2020:D *677:27 0.000215605
22 *2020:D *705:22 0.000104892
*RES
1 *1855:X *2020:D 32.4487 
*END

*D_NET *255 0.000274247
*CONN
*I *2021:D I *D sky130_fd_sc_hd__dfxtp_2
*I *1857:X O *D sky130_fd_sc_hd__o21a_2
*CAP
1 *2021:D 3.31443e-05
2 *1857:X 3.31443e-05
3 *2021:D *1863:A1 9.71067e-05
4 *2021:D *1865:C 1.54049e-05
5 *2021:D *491:23 9.54469e-05
*RES
1 *1857:X *2021:D 8.46375 
*END

*D_NET *256 0.000331086
*CONN
*I *2022:D I *D sky130_fd_sc_hd__dfxtp_2
*I *1860:Y O *D sky130_fd_sc_hd__nor3_2
*CAP
1 *2022:D 6.37713e-05
2 *1860:Y 6.37713e-05
3 *2022:D *1860:C 9.80943e-06
4 *2022:D *1867:C 0.000140032
5 *2022:D *2022:CLK 5.37018e-05
*RES
1 *1860:Y *2022:D 5.075 
*END

*D_NET *257 0.00244458
*CONN
*I *2023:D I *D sky130_fd_sc_hd__dfxtp_2
*I *1863:X O *D sky130_fd_sc_hd__o21a_2
*CAP
1 *2023:D 0.000742459
2 *1863:X 0.000742459
3 *2023:D *1863:A1 0.000264278
4 *2023:D *1863:A2 0.000158965
5 *2023:D *1865:A 8.23457e-05
6 *2023:D *1865:C 0.000295564
7 *2023:D *1865:D 3.83194e-05
8 *2023:D *2021:CLK 8.34281e-06
9 *2023:D *2140:A 9.54399e-05
10 *2023:D *482:34 0
11 *2023:D *495:26 1.6408e-05
*RES
1 *1863:X *2023:D 18.3 
*END

*D_NET *258 0.00144805
*CONN
*I *2024:D I *D sky130_fd_sc_hd__dfxtp_2
*I *1867:Y O *D sky130_fd_sc_hd__nor3_2
*CAP
1 *2024:D 0.00052204
2 *1867:Y 0.00052204
3 *2024:D *1860:A 0.000115614
4 *2024:D *1861:A 0.000156468
5 *2024:D *1864:A 0
6 *2024:D *1864:B 0
7 *2024:D *1865:A 0
8 *2024:D *2022:CLK 0
9 *2024:D *2296:A 5.41997e-06
10 *2024:D *543:16 0.000126467
11 *2024:D *543:66 0
12 *2024:D *668:12 0
13 *2024:D *669:10 0
*RES
1 *1867:Y *2024:D 16.6838 
*END

*D_NET *259 0.00260467
*CONN
*I *2025:D I *D sky130_fd_sc_hd__dfxtp_2
*I *1869:Y O *D sky130_fd_sc_hd__a21oi_2
*CAP
1 *2025:D 0.000765175
2 *1869:Y 0.000765175
3 *2025:D *1874:A 0.000300095
4 *2025:D *1876:A1 0.000130453
5 *2025:D *1876:B1 8.58007e-05
6 *2025:D *1878:B 4.66108e-05
7 *2025:D *1883:A2 0.000162318
8 *2025:D *1888:A 6.90876e-05
9 *2025:D *2200:A 0
10 *2025:D *2267:A 0.000102404
11 *2025:D *496:54 0.000159399
12 *2025:D *499:12 0
13 *2025:D *703:10 0
14 *169:26 *2025:D 1.81522e-05
*RES
1 *1869:Y *2025:D 22.3988 
*END

*D_NET *260 0.000896697
*CONN
*I *2026:D I *D sky130_fd_sc_hd__dfxtp_2
*I *1872:Y O *D sky130_fd_sc_hd__nor3_2
*CAP
1 *2026:D 0.000297087
2 *1872:Y 0.000297087
3 *2026:D *1875:A2 0.000302523
*RES
1 *1872:Y *2026:D 12.3938 
*END

*D_NET *261 0.0012494
*CONN
*I *2027:D I *D sky130_fd_sc_hd__dfxtp_2
*I *1875:X O *D sky130_fd_sc_hd__o211a_2
*CAP
1 *2027:D 0.00027637
2 *1875:X 0.00027637
3 *2027:D *1875:A1 7.61013e-05
4 *2027:D *1875:B1 0.000288444
5 *2027:D *2028:CLK 0.000124689
6 *2027:D *2298:A 3.54866e-05
7 *2027:D *543:37 0
8 *2027:D *686:12 0.000171937
*RES
1 *1875:X *2027:D 13.5487 
*END

*D_NET *262 0.00098881
*CONN
*I *2028:D I *D sky130_fd_sc_hd__dfxtp_2
*I *1878:Y O *D sky130_fd_sc_hd__nor3_2
*CAP
1 *2028:D 0.000160329
2 *1878:Y 0.000160329
3 *2028:D *1874:B 9.26175e-06
4 *2028:D *1878:B 0.000185405
5 *2028:D *1878:C 8.60799e-05
6 *2028:D *2267:A 0.000121815
7 *2028:D *496:26 8.18542e-05
8 *2028:D *496:54 0.000183738
*RES
1 *1878:Y *2028:D 12.0037 
*END

*D_NET *263 0.00106172
*CONN
*I *2029:D I *D sky130_fd_sc_hd__dfxtp_2
*I *1883:X O *D sky130_fd_sc_hd__o211a_2
*CAP
1 *2029:D 0.000297274
2 *1883:X 0.000297274
3 *2029:D *1883:A1 4.82863e-05
4 *2029:D *1883:B1 9.80943e-06
5 *2029:D *2208:A 8.75256e-05
6 *2029:D *492:79 0.000158066
7 *2029:D *496:22 0.000118527
8 *2029:D *504:19 4.49585e-05
*RES
1 *1883:X *2029:D 12.9637 
*END

*D_NET *264 0.00322631
*CONN
*I *2030:D I *D sky130_fd_sc_hd__dfxtp_2
*I *1886:Y O *D sky130_fd_sc_hd__nor2_2
*CAP
1 *2030:D 0.000877087
2 *1886:Y 0.000877087
3 *2030:D *1871:B 0.000409734
4 *2030:D *1879:B 7.49042e-05
5 *2030:D *1886:B 0.000829715
6 *2030:D *1978:A 1.61831e-05
7 *2030:D *492:43 4.219e-05
8 *2030:D *501:14 5.27944e-05
9 *2030:D *686:37 4.66108e-05
*RES
1 *1886:Y *2030:D 22.4888 
*END

*D_NET *265 0.000957854
*CONN
*I *2031:D I *D sky130_fd_sc_hd__dfxtp_2
*I *1889:X O *D sky130_fd_sc_hd__o21a_2
*CAP
1 *2031:D 0.000296756
2 *1889:X 0.000296756
3 *2031:D *1889:B1 0.000348699
4 *2031:D *560:8 1.56428e-05
*RES
1 *1889:X *2031:D 8.85875 
*END

*D_NET *266 0.000362909
*CONN
*I *2032:D I *D sky130_fd_sc_hd__dfxtp_2
*I *1892:Y O *D sky130_fd_sc_hd__nor3_2
*CAP
1 *2032:D 8.04885e-05
2 *1892:Y 8.04885e-05
3 *2032:D *1892:A 9.14049e-05
4 *2032:D *1892:B 3.18219e-05
5 *2032:D *1896:D 1.43717e-05
6 *2032:D *2032:CLK 1.43717e-05
7 *2032:D *2158:A 4.99619e-05
*RES
1 *1892:Y *2032:D 8.91375 
*END

*D_NET *267 0.000330627
*CONN
*I *2033:D I *D sky130_fd_sc_hd__dfxtp_2
*I *1894:X O *D sky130_fd_sc_hd__o21ba_2
*CAP
1 *2033:D 0.000115004
2 *1894:X 0.000115004
3 *2033:D *1892:B 3.51254e-06
4 *2033:D *1896:A 9.71067e-05
5 *2033:D *682:21 0
*RES
1 *1894:X *2033:D 9.15375 
*END

*D_NET *268 0.000827564
*CONN
*I *2034:D I *D sky130_fd_sc_hd__dfxtp_2
*I *1897:Y O *D sky130_fd_sc_hd__nor3_2
*CAP
1 *2034:D 0.000205746
2 *1897:Y 0.000205746
3 *2034:D *1895:A1 3.03684e-05
4 *2034:D *1895:A2 3.10498e-05
5 *2034:D *2256:A 5.4003e-05
6 *2034:D *562:40 5.4003e-05
7 *2034:D *682:42 4.42232e-05
8 *2034:D *682:44 0.000202425
*RES
1 *1897:Y *2034:D 11.625 
*END

*D_NET *269 0.00116815
*CONN
*I *2035:D I *D sky130_fd_sc_hd__dfxtp_2
*I *1899:X O *D sky130_fd_sc_hd__o21a_2
*CAP
1 *2035:D 0.000238489
2 *1899:X 0.000238489
3 *2035:D *1898:B1 0
4 *2035:D *1899:A2 8.08153e-06
5 *2035:D *1899:B1 5.39718e-05
6 *2035:D *2025:CLK 0.000451257
7 *2035:D *512:14 7.58866e-05
8 *2035:D *546:16 5.18694e-05
9 *2035:D *564:48 5.01066e-05
*RES
1 *1899:X *2035:D 13.6538 
*END

*D_NET *270 0.00039043
*CONN
*I *2036:D I *D sky130_fd_sc_hd__dfxtp_2
*I *1902:Y O *D sky130_fd_sc_hd__nor3_2
*CAP
1 *2036:D 0.000132519
2 *1902:Y 0.000132519
3 *2036:D *1902:C 0.000117687
4 *2036:D *2036:CLK 7.70553e-06
*RES
1 *1902:Y *2036:D 9.16875 
*END

*D_NET *271 0.00104714
*CONN
*I *2037:D I *D sky130_fd_sc_hd__dfxtp_2
*I *1905:X O *D sky130_fd_sc_hd__o21a_2
*CAP
1 *2037:D 0.000284906
2 *1905:X 0.000284906
3 *2037:D *1905:B1 0.000269343
4 *2037:D *516:14 0.000160338
5 *2037:D *535:337 4.76437e-05
*RES
1 *1905:X *2037:D 8.70875 
*END

*D_NET *272 0.00319818
*CONN
*I *2038:D I *D sky130_fd_sc_hd__dfxtp_2
*I *1907:X O *D sky130_fd_sc_hd__o21a_2
*CAP
1 *2038:D 0.000742375
2 *1907:X 0.000742375
3 *2038:D *1906:B1 0.000516598
4 *2038:D *1907:B1 9.76751e-05
5 *2038:D *1912:B 0
6 *2038:D *1913:A2 0.000358257
7 *2038:D *1914:B1 6.11912e-05
8 *2038:D *1916:A1 6.72196e-05
9 *2038:D *547:8 6.55328e-05
10 *2038:D *547:19 0.000107374
11 *2038:D *547:30 9.78876e-05
12 *2038:D *547:39 0.000106955
13 *2038:D *547:52 2.50888e-05
14 *2038:D *591:10 7.55299e-05
15 *169:18 *2038:D 0.000134122
*RES
1 *1907:X *2038:D 24.1537 
*END

*D_NET *273 0.00112564
*CONN
*I *2039:D I *D sky130_fd_sc_hd__dfxtp_2
*I *1910:Y O *D sky130_fd_sc_hd__nor3_2
*CAP
1 *2039:D 0.000338921
2 *1910:Y 0.000338921
3 *2039:D *1910:A 9.53743e-05
4 *2039:D *1911:A 0.00020271
5 *2039:D *2039:CLK 7.79249e-05
6 *2039:D *2273:A 0
7 *2039:D *546:79 0
8 pcRegister[22] *2039:D 7.17852e-05
*RES
1 *1910:Y *2039:D 13.965 
*END

*D_NET *274 0.00322842
*CONN
*I *2040:D I *D sky130_fd_sc_hd__dfxtp_2
*I *1913:X O *D sky130_fd_sc_hd__o21a_2
*CAP
1 *2040:D 0.00131546
2 *1913:X 0.00131546
3 *2040:D *1910:C 2.96827e-05
4 *2040:D *1913:B1 0.000159521
5 *2040:D *2040:CLK 8.30853e-06
6 *2040:D *2276:A 7.82872e-05
7 *2040:D *591:42 1.06171e-05
8 *2040:D *685:51 7.4027e-05
9 *2040:D *688:60 3.47757e-05
10 *2040:D *740:44 0.000152071
11 red[0] *2040:D 0
12 red[4] *2040:D 5.02154e-05
*RES
1 *1913:X *2040:D 15.2435 
*END

*D_NET *275 0.00106285
*CONN
*I *2041:D I *D sky130_fd_sc_hd__dfxtp_2
*I *1915:X O *D sky130_fd_sc_hd__o21a_2
*CAP
1 *2041:D 0.000199942
2 *1915:X 0.000199942
3 *2041:D *1907:A1 0.000112299
4 *2041:D *1913:A1 0.000272235
5 *2041:D *1915:B1 0.00015428
6 *2041:D *516:42 0.000124151
*RES
1 *1915:X *2041:D 12.9187 
*END

*D_NET *276 0.00147986
*CONN
*I *2042:D I *D sky130_fd_sc_hd__dfxtp_2
*I *1918:Y O *D sky130_fd_sc_hd__nor2_2
*CAP
1 *2042:D 0.000291993
2 *1918:Y 0.000291993
3 *2042:D *1912:B 0.000270633
4 *2042:D *1918:B 0.000101678
5 *2042:D *2042:CLK 4.80285e-05
6 *2042:D *2206:A 7.00889e-06
7 *2042:D *2279:A 2.75538e-05
8 *2042:D *547:30 0.000136884
9 *2042:D *547:39 0.000216751
10 *2042:D *547:52 8.37299e-05
11 *2042:D *625:39 3.60648e-06
*RES
1 *1918:Y *2042:D 14.4637 
*END

*D_NET *277 0.00147479
*CONN
*I *2043:D I *D sky130_fd_sc_hd__dfxtp_2
*I *1922:X O *D sky130_fd_sc_hd__and3_2
*CAP
1 *2043:D 0.000571938
2 *1922:X 0.000571938
3 *2043:D *1607:A 0
4 *2043:D *1922:B 2.98587e-05
5 *2043:D *1922:C 1.1392e-05
6 *2043:D *1924:A1 9.04308e-05
7 *2043:D *2043:CLK 7.71334e-05
8 *2043:D *2278:A 0
9 *2043:D *2284:A 0
10 pcRegister[27] *2043:D 0
11 pcRegister[28] *2043:D 0.0001221
12 pcRegister[31] *2043:D 0
*RES
1 *1922:X *2043:D 17.37 
*END

*D_NET *278 0.00287165
*CONN
*I *2044:D I *D sky130_fd_sc_hd__dfxtp_2
*I *1924:Y O *D sky130_fd_sc_hd__a21oi_2
*CAP
1 *2044:D 0.000713662
2 *1924:Y 0.000713662
3 *2044:D *1916:A2 1.32026e-05
4 *2044:D *1918:A 0.000299718
5 *2044:D *1919:A2 0.000151741
6 *2044:D *1923:B1 0.000103705
7 *2044:D *1924:A1 7.15568e-05
8 *2044:D *1925:B1 1.35463e-05
9 *2044:D *1926:A 7.59091e-05
10 *2044:D *1929:D 0.000100926
11 *2044:D *2011:A 2.98644e-05
12 *2044:D *2044:CLK 5.42149e-05
13 *2044:D *2285:A 2.19562e-06
14 *2044:D *527:23 2.14995e-05
15 *2044:D *547:71 7.95969e-05
16 *2044:D *658:21 0.000110013
17 *2044:D *658:36 0.000196078
18 red[1] *2044:D 1.13043e-05
19 *1922:A *2044:D 4.04327e-05
20 *2122:SET_B *2044:D 6.88204e-05
*RES
1 *1924:Y *2044:D 23.8188 
*END

*D_NET *279 0.00565936
*CONN
*I *2045:D I *D sky130_fd_sc_hd__dfxtp_2
*I *1928:X O *D sky130_fd_sc_hd__and2b_2
*CAP
1 *2045:D 0.00224276
2 *1928:X 0.00224276
3 *2045:D *1919:A2 0.000110759
4 *2045:D *1922:C 0.000312487
5 *2045:D *1925:B1 0.000275041
6 *2045:D *1928:B 5.36232e-05
7 *2045:D *2277:A 1.7635e-05
8 *2045:D *2285:A 8.64488e-05
9 *2045:D *547:71 0.000163165
10 green[0] *2045:D 1.08315e-06
11 pcRegister[31] *2045:D 6.07575e-06
12 red[3] *2045:D 0
13 red[5] *2045:D 7.48613e-05
14 *1922:A *2045:D 7.26545e-05
*RES
1 *1928:X *2045:D 17.4014 
*END

*D_NET *280 0.000366217
*CONN
*I *2046:D I *D sky130_fd_sc_hd__dfxtp_2
*I *1931:X O *D sky130_fd_sc_hd__and3_2
*CAP
1 *2046:D 5.0743e-05
2 *1931:X 5.0743e-05
3 *2046:D *658:36 0.000145921
4 *169:79 *2046:D 0.00011881
*RES
1 *1931:X *2046:D 4.92875 
*END

*D_NET *281 0.000423002
*CONN
*I *2047:D I *D sky130_fd_sc_hd__dfrtp_2
*I *1768:X O *D sky130_fd_sc_hd__o21a_2
*CAP
1 *2047:D 0.0001181
2 *1768:X 0.0001181
3 *2047:D *1768:A1 2.30292e-05
4 *2047:D *1768:A2 0.000163772
5 *2047:D *434:12 0
*RES
1 *1768:X *2047:D 9.375 
*END

*D_NET *282 0.00021095
*CONN
*I *2048:D I *D sky130_fd_sc_hd__dfrtp_2
*I *1752:X O *D sky130_fd_sc_hd__o21a_2
*CAP
1 *2048:D 5.9547e-05
2 *1752:X 5.9547e-05
3 *2048:D *433:20 9.18556e-05
*RES
1 *1752:X *2048:D 8.325 
*END

*D_NET *283 0.000481009
*CONN
*I *2049:D I *D sky130_fd_sc_hd__dfrtp_2
*I *1767:X O *D sky130_fd_sc_hd__o21a_2
*CAP
1 *2049:D 0.000137721
2 *1767:X 0.000137721
3 *2049:D *1767:A2 4.05127e-05
4 *2049:D *2049:CLK 4.22574e-05
5 *2049:D *701:24 0.000122797
*RES
1 *1767:X *2049:D 9.72 
*END

*D_NET *284 0.00159091
*CONN
*I *2050:D I *D sky130_fd_sc_hd__dfrtp_2
*I *1766:Y O *D sky130_fd_sc_hd__a21boi_2
*CAP
1 *2050:D 0.000338712
2 *1766:Y 0.000338712
3 *2050:D *1766:B1_N 8.51879e-05
4 *2050:D *1949:A 0.000134756
5 *2050:D *427:32 0.000115303
6 *2050:D *556:12 0.00023875
7 *2050:D *690:54 0.000169827
8 *2050:D *690:75 0.000169659
*RES
1 *1766:Y *2050:D 16.08 
*END

*D_NET *285 0.000253737
*CONN
*I *2051:D I *D sky130_fd_sc_hd__dfrtp_2
*I *1764:X O *D sky130_fd_sc_hd__and2_2
*CAP
1 *2051:D 8.13475e-05
2 *1764:X 8.13475e-05
3 *2051:D *550:12 3.89528e-05
4 *2051:D *731:124 5.2089e-05
*RES
1 *1764:X *2051:D 8.775 
*END

*D_NET *286 0.000427614
*CONN
*I *2052:D I *D sky130_fd_sc_hd__dfrtp_2
*I *1763:X O *D sky130_fd_sc_hd__a22o_2
*CAP
1 *2052:D 9.56753e-05
2 *1763:X 9.56753e-05
3 *2052:D *1763:A1 5.05437e-05
4 *2052:D *1763:B2 0.000120186
5 *2052:D *731:124 6.55328e-05
*RES
1 *1763:X *2052:D 9.375 
*END

*D_NET *287 0.000729773
*CONN
*I *2053:D I *D sky130_fd_sc_hd__dfrtp_2
*I *1757:X O *D sky130_fd_sc_hd__mux2_1
*CAP
1 *2053:D 0.000281024
2 *1757:X 0.000281024
3 *2053:D *1757:A0 0
4 *2053:D *436:12 0
5 *2053:D *731:124 0.000167724
*RES
1 *1757:X *2053:D 12.45 
*END

*D_NET *288 0.0004127
*CONN
*I *2054:D I *D sky130_fd_sc_hd__dfrtp_2
*I *1740:X O *D sky130_fd_sc_hd__o22a_2
*CAP
1 *2054:D 0.000133904
2 *1740:X 0.000133904
3 *2054:D *1740:B1 5.11067e-05
4 *2054:D *692:42 9.37846e-05
*RES
1 *1740:X *2054:D 9.465 
*END

*D_NET *289 0.00102844
*CONN
*I *2055:D I *D sky130_fd_sc_hd__dfrtp_2
*I *1736:X O *D sky130_fd_sc_hd__o31a_2
*CAP
1 *2055:D 0.000424858
2 *1736:X 0.000424858
3 *2055:D *1612:A 0
4 *2055:D *718:10 0
5 *13:12 *2055:D 0.000178722
*RES
1 *1736:X *2055:D 14.52 
*END

*D_NET *290 0.000500792
*CONN
*I *2056:D I *D sky130_fd_sc_hd__dfrtp_2
*I *1735:X O *D sky130_fd_sc_hd__o21a_2
*CAP
1 *2056:D 0.000147992
2 *1735:X 0.000147992
3 *2056:D *2056:CLK 9.53445e-05
4 *2056:D *692:78 7.03276e-05
5 *13:12 *2056:D 3.91353e-05
*RES
1 *1735:X *2056:D 9.60375 
*END

*D_NET *291 0.00247768
*CONN
*I *2057:D I *D sky130_fd_sc_hd__dfrtp_2
*I *1733:X O *D sky130_fd_sc_hd__or2_2
*CAP
1 *2057:D 0.000775305
2 *1733:X 0.000775305
3 *2057:D *1730:A 2.86975e-05
4 *2057:D *1732:A2 0.000129968
5 *2057:D *1732:B1 7.28465e-06
6 *2057:D *1848:A 0.000375467
7 *2057:D *2057:CLK 4.90227e-05
8 *2057:D *2058:D 8.22835e-05
9 *2057:D *2156:A 2.2428e-05
10 *2057:D *414:12 8.74345e-06
11 *2057:D *723:8 3.25525e-05
12 *2057:D *724:12 9.23578e-05
13 *2058:RESET_B *2057:D 9.8269e-05
*RES
1 *1733:X *2057:D 23.665 
*END

*D_NET *292 0.000825589
*CONN
*I *2058:D I *D sky130_fd_sc_hd__dfrtp_2
*I *1730:X O *D sky130_fd_sc_hd__or2_2
*CAP
1 *2058:D 0.000243749
2 *1730:X 0.000243749
3 *2058:D *1730:A 5.63041e-05
4 *2058:D *414:12 0.000113697
5 *2057:D *2058:D 8.22835e-05
6 *2058:RESET_B *2058:D 8.58063e-05
*RES
1 *1730:X *2058:D 11.1 
*END

*D_NET *293 0.000257083
*CONN
*I *2059:D I *D sky130_fd_sc_hd__dfrtp_2
*I *1722:X O *D sky130_fd_sc_hd__o31a_2
*CAP
1 *2059:D 3.72531e-05
2 *1722:X 3.72531e-05
3 *2059:D *1722:A1 0.000117825
4 *2059:D *535:15 6.47516e-05
*RES
1 *1722:X *2059:D 8.58 
*END

*D_NET *294 0.000976968
*CONN
*I *2060:D I *D sky130_fd_sc_hd__dfrtp_2
*I *1721:X O *D sky130_fd_sc_hd__o31a_2
*CAP
1 *2060:D 0.000314055
2 *1721:X 0.000314055
3 *2060:D *1616:A 9.50342e-06
4 *2060:D *1788:C1 0.000116594
5 *2060:D *1973:A 0
6 *2060:D *2059:CLK 0.000111293
7 *2060:D *2185:A 0.000111467
8 *2084:RESET_B *2060:D 0
*RES
1 *1721:X *2060:D 13.56 
*END

*D_NET *295 0.000533812
*CONN
*I *2061:D I *D sky130_fd_sc_hd__dfrtp_2
*I *1720:Y O *D sky130_fd_sc_hd__a21boi_2
*CAP
1 *2061:D 9.05582e-05
2 *1720:Y 9.05582e-05
3 *2061:D *1720:B1_N 0
4 *2061:D *1725:A 4.77769e-05
5 *2061:D *1790:C_N 6.03497e-05
6 *2061:D *2100:CLK 8.41384e-05
7 *2061:D *413:31 0.000160431
*RES
1 *1720:Y *2061:D 9.885 
*END

*D_NET *296 0.000372522
*CONN
*I *2062:D I *D sky130_fd_sc_hd__dfrtp_2
*I *1718:X O *D sky130_fd_sc_hd__a21o_2
*CAP
1 *2062:D 6.42925e-05
2 *1718:X 6.42925e-05
3 *2062:D *1951:A 4.66108e-05
4 *2062:D *2092:CLK 2.49909e-05
5 *2062:D *407:12 1.70935e-05
6 *2062:D *407:25 4.31189e-05
7 *2062:D *537:22 0.000112123
*RES
1 *1718:X *2062:D 9.03 
*END

*D_NET *297 0.000497335
*CONN
*I *2063:D I *D sky130_fd_sc_hd__dfrtp_2
*I *1713:Y O *D sky130_fd_sc_hd__o31ai_2
*CAP
1 *2063:D 9.90993e-05
2 *1713:Y 9.90993e-05
3 *2063:D *492:43 0.000178041
4 *2063:D *666:10 9.61041e-05
5 *2063:D *679:48 2.49909e-05
*RES
1 *1713:Y *2063:D 9.795 
*END

*D_NET *298 0.0015464
*CONN
*I *2064:D I *D sky130_fd_sc_hd__dfrtp_2
*I *1711:X O *D sky130_fd_sc_hd__o21ba_2
*CAP
1 *2064:D 0.000334088
2 *1711:X 0.000334088
3 *2064:D *1710:B1_N 2.94708e-05
4 *2064:D *1853:A 9.50342e-06
5 *2064:D *1855:B1 2.7549e-05
6 *2064:D *2065:D 0.000223167
7 *2064:D *447:30 0.000479479
8 *2064:RESET_B *2064:D 0.00010905
*RES
1 *1711:X *2064:D 15.435 
*END

*D_NET *299 0.000762891
*CONN
*I *2065:D I *D sky130_fd_sc_hd__dfrtp_2
*I *1710:X O *D sky130_fd_sc_hd__o21ba_2
*CAP
1 *2065:D 0.000155733
2 *1710:X 0.000155733
3 *2065:D *1710:B1_N 5.16418e-05
4 *2065:D *1711:A1 0
5 *2065:D *1855:A1 8.92729e-05
6 *2065:D *666:16 0
7 *2065:D *678:16 8.73421e-05
8 *2065:D *679:23 0
9 *2064:D *2065:D 0.000223167
10 *2065:RESET_B *2065:D 0
*RES
1 *1710:X *2065:D 11.34 
*END

*D_NET *300 0.000574494
*CONN
*I *2066:D I *D sky130_fd_sc_hd__dfrtp_2
*I *1705:X O *D sky130_fd_sc_hd__and3_2
*CAP
1 *2066:D 0.00012399
2 *1705:X 0.00012399
3 *2066:D *1689:A 4.77807e-05
4 *2066:D *1690:D 0
5 *2066:D *1702:A2 4.82919e-05
6 *2066:D *1703:B 0
7 *2066:D *1705:B 4.66108e-05
8 *2066:D *1705:C 0.00018383
*RES
1 *1705:X *2066:D 10.245 
*END

*D_NET *301 0.000473767
*CONN
*I *2067:D I *D sky130_fd_sc_hd__dfrtp_2
*I *1703:Y O *D sky130_fd_sc_hd__nor2_2
*CAP
1 *2067:D 0.000169198
2 *1703:Y 0.000169198
3 *2067:D *1690:D 8.64421e-05
4 *2067:D *673:34 4.89295e-05
*RES
1 *1703:Y *2067:D 10.23 
*END

*D_NET *302 0.000700239
*CONN
*I *2068:D I *D sky130_fd_sc_hd__dfrtp_2
*I *1701:X O *D sky130_fd_sc_hd__and2_2
*CAP
1 *2068:D 0.000189585
2 *1701:X 0.000189585
3 *2068:D *1701:B 0.000268002
4 *2068:D *385:48 5.30673e-05
5 *2068:D *756:10 0
*RES
1 *1701:X *2068:D 11.16 
*END

*D_NET *303 0.000266958
*CONN
*I *2069:D I *D sky130_fd_sc_hd__dfrtp_2
*I *1698:X O *D sky130_fd_sc_hd__and3_2
*CAP
1 *2069:D 0.000130563
2 *1698:X 0.000130563
3 *2069:D *765:8 5.83121e-06
*RES
1 *1698:X *2069:D 5.045 
*END

*D_NET *304 0.000247203
*CONN
*I *2070:D I *D sky130_fd_sc_hd__dfrtp_2
*I *1696:Y O *D sky130_fd_sc_hd__nor2_2
*CAP
1 *2070:D 6.29671e-05
2 *1696:Y 6.29671e-05
3 *2070:D *1695:B 4.29107e-05
4 *2070:D *2071:CLK 7.10578e-05
5 *2070:D *388:6 3.64998e-06
6 *2070:D *766:14 3.64998e-06
*RES
1 *1696:Y *2070:D 4.685 
*END

*D_NET *305 0.000799244
*CONN
*I *2071:D I *D sky130_fd_sc_hd__dfrtp_2
*I *1694:X O *D sky130_fd_sc_hd__xor2_2
*CAP
1 *2071:D 0.000255349
2 *1694:X 0.000255349
3 *2071:D *1694:A 5.39718e-05
4 *2071:D *542:43 0
5 *2071:D *700:59 4.70343e-05
6 *2071:D *767:12 7.1761e-05
7 *2071:D *767:14 0.000115779
*RES
1 *1694:X *2071:D 12.135 
*END

*D_NET *306 0.00104828
*CONN
*I *2072:D I *D sky130_fd_sc_hd__dfrtp_2
*I *1693:Y O *D sky130_fd_sc_hd__xnor2_2
*CAP
1 *2072:D 0.000275094
2 *1693:Y 0.000275094
3 *2072:D *1668:B 8.4918e-05
4 *2072:D *1840:A 0
5 *2072:D *2073:CLK 0.000136838
6 *2072:D *2080:D 9.13924e-05
7 *2072:D *535:245 0
8 *2072:D *542:10 0.000159957
9 *2072:D *542:14 2.49909e-05
*RES
1 *1693:Y *2072:D 13.395 
*END

*D_NET *307 0.00118097
*CONN
*I *2073:D I *D sky130_fd_sc_hd__dfrtp_2
*I *1692:X O *D sky130_fd_sc_hd__xor2_2
*CAP
1 *2073:D 0.000298419
2 *1692:X 0.000298419
3 *2073:D *1688:B 0.000163012
4 *2073:D *2207:A 0
5 *2073:D *699:58 0.000358243
6 *2073:D *768:38 6.28765e-05
*RES
1 *1692:X *2073:D 13.56 
*END

*D_NET *308 0.000239432
*CONN
*I *2074:D I *D sky130_fd_sc_hd__dfrtp_2
*I *1683:Y O *D sky130_fd_sc_hd__nor2_2
*CAP
1 *2074:D 3.50635e-05
2 *1683:Y 3.50635e-05
3 *2074:D *540:44 4.91189e-05
4 *2074:D *696:61 0.000120186
*RES
1 *1683:Y *2074:D 8.58 
*END

*D_NET *309 0.00086936
*CONN
*I *2075:D I *D sky130_fd_sc_hd__dfrtp_2
*I *1681:X O *D sky130_fd_sc_hd__o211a_2
*CAP
1 *2075:D 0.00028182
2 *1681:X 0.00028182
3 *2075:D *1673:B 0.000123016
4 *2075:D *1674:A 4.88572e-05
5 *2075:D *1674:B 0
6 *2075:D *1680:A 0
7 *2075:D *1681:A1 0
8 *2075:D *1964:A 1.73847e-05
9 *2075:D *373:12 2.63663e-05
10 *2075:RESET_B *2075:D 9.00959e-05
*RES
1 *1681:X *2075:D 12.09 
*END

*D_NET *310 0.00049499
*CONN
*I *2076:D I *D sky130_fd_sc_hd__dfrtp_2
*I *1674:Y O *D sky130_fd_sc_hd__nor2_2
*CAP
1 *2076:D 0.00017312
2 *1674:Y 0.00017312
3 *2076:D *1673:B 5.69814e-05
4 *2076:D *1674:B 0
5 *2075:RESET_B *2076:D 9.17697e-05
*RES
1 *1674:Y *2076:D 10.62 
*END

*D_NET *311 0.000586603
*CONN
*I *2077:D I *D sky130_fd_sc_hd__dfrtp_2
*I *1672:X O *D sky130_fd_sc_hd__xor2_2
*CAP
1 *2077:D 0.00021933
2 *1672:X 0.00021933
3 *2077:D *1671:B 4.43871e-06
4 *2077:D *2078:D 6.74079e-05
5 *2077:D *2161:A 7.60965e-05
6 *2077:D *695:18 0
7 *2076:RESET_B *2077:D 0
*RES
1 *1672:X *2077:D 11.115 
*END

*D_NET *312 0.000521232
*CONN
*I *2078:D I *D sky130_fd_sc_hd__dfrtp_2
*I *1671:X O *D sky130_fd_sc_hd__xor2_2
*CAP
1 *2078:D 0.000140081
2 *1671:X 0.000140081
3 *2078:D *1965:A 0
4 *2078:D *695:18 0.000173661
5 *2077:D *2078:D 6.74079e-05
*RES
1 *1671:X *2078:D 10.875 
*END

*D_NET *313 0.000774142
*CONN
*I *2079:D I *D sky130_fd_sc_hd__dfrtp_2
*I *1670:Y O *D sky130_fd_sc_hd__nor2_2
*CAP
1 *2079:D 0.000117543
2 *1670:Y 0.000117543
3 *2079:D *1668:B 0.000202541
4 *2079:D *2161:A 0.000137571
5 *2079:D *375:17 0.000198945
*RES
1 *1670:Y *2079:D 10.665 
*END

*D_NET *314 0.00174376
*CONN
*I *2080:D I *D sky130_fd_sc_hd__dfrtp_2
*I *1668:X O *D sky130_fd_sc_hd__and2_2
*CAP
1 *2080:D 0.000541589
2 *1668:X 0.000541589
3 *2080:D *1668:A 6.03224e-05
4 *2080:D *1668:B 0.000137349
5 *2080:D *2072:CLK 0.000156916
6 *2080:D *2130:A 3.05183e-05
7 *2080:D *2165:A 5.30673e-05
8 *2080:D *535:245 0
9 *2080:D *541:10 0.000131017
10 *2072:D *2080:D 9.13924e-05
*RES
1 *1668:X *2080:D 16.86 
*END

*D_NET *315 0.000305898
*CONN
*I *2081:D I *D sky130_fd_sc_hd__dfrtp_2
*I *1666:Y O *D sky130_fd_sc_hd__xnor2_2
*CAP
1 *2081:D 0.000127677
2 *1666:Y 0.000127677
3 *2081:D *2081:CLK 5.05437e-05
*RES
1 *1666:Y *2081:D 5.03 
*END

*D_NET *316 0.0022206
*CONN
*I *2082:D I *D sky130_fd_sc_hd__dfstp_2
*I *1644:X O *D sky130_fd_sc_hd__a31o_2
*CAP
1 *2082:D 0.00102182
2 *1644:X 0.00102182
3 *2082:D *1778:B1 0
4 *2082:D *1794:C1 3.09164e-05
5 *2082:D *346:21 0.000101872
6 *2082:D *347:10 2.37234e-05
7 *2170:A *2082:D 2.04531e-05
*RES
1 *1644:X *2082:D 11.8425 
*END

*D_NET *317 0.000514536
*CONN
*I *2179:A I *D sky130_fd_sc_hd__dlygate4sd3_1
*I *1642:Y O *D sky130_fd_sc_hd__a31oi_2
*CAP
1 *2179:A 0.00021397
2 *1642:Y 0.00021397
3 *2179:A *1644:B1 8.65961e-05
*RES
1 *1642:Y *2179:A 6.41 
*END

*D_NET *318 0.000390325
*CONN
*I *2084:D I *D sky130_fd_sc_hd__dfrtp_2
*I *1632:X O *D sky130_fd_sc_hd__a22o_2
*CAP
1 *2084:D 0.000132278
2 *1632:X 0.000132278
3 *2084:D *1628:C 4.76659e-05
4 *2084:D *1632:A2 2.7881e-05
5 *2084:D *340:30 5.02217e-05
6 *2084:D *551:33 0
*RES
1 *1632:X *2084:D 9.795 
*END

*D_NET *319 0.000231419
*CONN
*I *2099:D I *D sky130_fd_sc_hd__dfrtp_2
*I *1832:Y O *D sky130_fd_sc_hd__nor2_2
*CAP
1 *2099:D 8.97912e-05
2 *1832:Y 8.97912e-05
3 *2099:D *471:12 5.18362e-05
*RES
1 *1832:Y *2099:D 8.775 
*END

*D_NET *320 0.00144892
*CONN
*I *2100:D I *D sky130_fd_sc_hd__dfrtp_2
*I *1833:Y O *D sky130_fd_sc_hd__nor2_2
*CAP
1 *2100:D 0.000325266
2 *1833:Y 0.000325266
3 *2100:D *1725:C 6.54361e-06
4 *2100:D *1833:B 0.000101008
5 *2100:D *2255:A 0.000136809
6 *2100:D *412:14 6.2706e-05
7 *2100:D *471:12 0.000479933
8 *2100:D *701:24 1.1392e-05
*RES
1 *1833:Y *2100:D 15.405 
*END

*D_NET *321 0.00304907
*CONN
*I *1643:B1 I *D sky130_fd_sc_hd__a21oi_2
*I *1736:A1 I *D sky130_fd_sc_hd__o31a_2
*I *1605:Y O *D sky130_fd_sc_hd__inv_2
*CAP
1 *1643:B1 0.000462024
2 *1736:A1 0.000288146
3 *1605:Y 0
4 *321:4 0.00075017
5 *1643:B1 *1634:B 0.000198939
6 *1643:B1 *1640:A0 4.41506e-05
7 *1643:B1 *1640:A1 6.1357e-05
8 *1643:B1 *353:8 0.000118391
9 *1643:B1 *775:14 4.82863e-05
10 *1736:A1 *1736:A2 5.42468e-05
11 *1736:A1 *1736:A3 0.000193801
12 *1736:A1 *1736:B1 0.000422585
13 *1736:A1 *346:8 2.96334e-05
14 *1736:A1 *538:65 0.000223713
15 *1736:A1 *565:10 3.07421e-05
16 *1736:A1 *694:67 7.87474e-05
17 *2170:A *1643:B1 4.41363e-05
*RES
1 *1605:Y *321:4 1.6 
2 *321:4 *1736:A1 13.55 
3 *321:4 *1643:B1 9.325 
*END

*D_NET *322 0.00210375
*CONN
*I *1712:B1 I *D sky130_fd_sc_hd__a31o_2
*I *1708:B I *D sky130_fd_sc_hd__and4b_2
*I *1706:B I *D sky130_fd_sc_hd__and4b_2
*I *1606:Y O *D sky130_fd_sc_hd__inv_2
*CAP
1 *1712:B1 0.000140404
2 *1708:B 0
3 *1706:B 0.000136214
4 *1606:Y 0.000453422
5 *322:14 0.000449233
6 *1706:B *1706:D 0.000102814
7 *1706:B *1707:B 1.27434e-05
8 *1706:B *1728:B1 0.000114839
9 *1706:B *1731:B1 4.41506e-05
10 *1706:B *1786:B1 5.16418e-05
11 *1706:B *724:16 0.000178588
12 *1706:B *733:20 6.22925e-05
13 *1706:B *739:26 4.66108e-05
14 *1712:B1 *404:16 2.99731e-05
15 *322:14 *1606:A 7.47419e-06
16 *322:14 *1707:B 1.08758e-05
17 *322:14 *1709:A 0.000122801
18 *322:14 *1786:A1 2.30258e-05
19 *322:14 *402:8 1.06688e-05
20 *322:14 *404:16 3.45117e-05
21 *322:14 *739:26 7.14699e-05
*RES
1 *1606:Y *322:14 9.785 
2 *322:14 *1706:B 9.5 
3 *322:14 *1708:B 1.6 
4 *1606:Y *1712:B1 9.285 
*END

*D_NET *323 0.00410546
*CONN
*I *1924:A1 I *D sky130_fd_sc_hd__a21oi_2
*I *1607:Y O *D sky130_fd_sc_hd__inv_2
*CAP
1 *1924:A1 0.00122263
2 *1607:Y 0.00122263
3 *1924:A1 *1923:B1 5.13252e-05
4 *1924:A1 *2108:CLK 0.000189894
5 *1924:A1 *2276:A 0.000196045
6 *1924:A1 *2282:A 0.000197726
7 *1924:A1 *527:23 9.2058e-05
8 *1924:A1 *528:20 6.95444e-05
9 *1924:A1 *636:34 4.36573e-06
10 *1924:A1 *688:87 0
11 pcRegister[27] *1924:A1 0.000230985
12 pcRegister[28] *1924:A1 9.20976e-05
13 *2043:D *1924:A1 9.04308e-05
14 *2044:D *1924:A1 7.15568e-05
15 *2108:D *1924:A1 5.83121e-06
16 *169:18 *1924:A1 0.000152071
17 *169:79 *1924:A1 0.000216278
*RES
1 *1607:Y *1924:A1 33.07 
*END

*D_NET *324 0.00069256
*CONN
*I *1887:D1 I *D sky130_fd_sc_hd__a2111oi_2
*I *1608:Y O *D sky130_fd_sc_hd__inv_2
*CAP
1 *1887:D1 0.000177258
2 *1608:Y 0.000177258
3 *1887:D1 *506:10 0.000286207
4 *2012:RESET_B *1887:D1 5.18356e-05
*RES
1 *1608:Y *1887:D1 11.07 
*END

*D_NET *325 0.00161683
*CONN
*I *1887:C1 I *D sky130_fd_sc_hd__a2111oi_2
*I *1885:A1 I *D sky130_fd_sc_hd__a21o_2
*I *1609:Y O *D sky130_fd_sc_hd__inv_2
*CAP
1 *1887:C1 9.3279e-05
2 *1885:A1 0.000168115
3 *1609:Y 0.000237311
4 *325:10 0.000498705
5 *1885:A1 *1771:A 8.65905e-05
6 *1885:A1 *447:12 8.65905e-05
7 *1885:A1 *535:76 1.6418e-05
8 *1887:C1 *1771:B 0.000165943
9 *1887:C1 *1881:A 6.01269e-05
10 *1887:C1 *1881:B 2.93136e-05
11 *1887:C1 *2242:A 0
12 *1887:C1 *506:10 3.75882e-06
13 *325:10 *1781:A_N 0
14 *325:10 *1881:A 9.70956e-05
15 *325:10 *1978:A 7.35813e-05
16 *325:10 *2242:A 0
17 *325:10 *413:41 0
*RES
1 *1609:Y *325:10 7.65 
2 *325:10 *1885:A1 5.775 
3 *325:10 *1887:C1 6.255 
*END

*D_NET *326 0.000814276
*CONN
*I *1725:A I *D sky130_fd_sc_hd__nor3_2
*I *1720:A1 I *D sky130_fd_sc_hd__a21boi_2
*I *1610:Y O *D sky130_fd_sc_hd__inv_2
*CAP
1 *1725:A 9.1368e-05
2 *1720:A1 0
3 *1610:Y 6.29924e-05
4 *326:6 0.00015436
5 *1725:A *1726:B 2.93063e-05
6 *1725:A *1790:C_N 0.000156911
7 *1725:A *2100:CLK 2.01934e-05
8 *1725:A *413:31 6.12027e-05
9 *326:6 *1610:A 4.77769e-05
10 *326:6 *1720:A2 0.000122202
11 *326:6 *2100:CLK 2.0187e-05
12 *2061:D *1725:A 4.77769e-05
*RES
1 *1610:Y *326:6 3.085 
2 *326:6 *1720:A1 1.6 
3 *326:6 *1725:A 8.285 
*END

*D_NET *327 0.00155763
*CONN
*I *1767:A1 I *D sky130_fd_sc_hd__o21a_2
*I *1739:B I *D sky130_fd_sc_hd__nor2_2
*I *1611:Y O *D sky130_fd_sc_hd__inv_2
*CAP
1 *1767:A1 0
2 *1739:B 0.000117149
3 *1611:Y 0.000201901
4 *327:10 0.00031905
5 *1739:B *1740:B1 4.89395e-05
6 *1739:B *1797:C1 0.000254497
7 *1739:B *1938:A 2.21074e-05
8 *1739:B *2258:A 3.75882e-06
9 *327:10 *1797:C1 0.000307159
10 *13:12 *1739:B 9.1762e-05
11 *13:12 *327:10 0.000191304
*RES
1 *1611:Y *327:10 8.415 
2 *327:10 *1739:B 6.975 
3 *327:10 *1767:A1 3.6 
*END

*D_NET *328 0.00130195
*CONN
*I *1842:B1 I *D sky130_fd_sc_hd__a21oi_2
*I *1736:A3 I *D sky130_fd_sc_hd__o31a_2
*I *1612:Y O *D sky130_fd_sc_hd__inv_2
*CAP
1 *1842:B1 9.58155e-05
2 *1736:A3 7.21189e-05
3 *1612:Y 3.03405e-05
4 *328:8 0.000198275
5 *1736:A3 *694:67 0.000119756
6 *1842:B1 *1633:B 0.000197385
7 *1842:B1 *1944:A 0.000186486
8 *1842:B1 *707:21 4.66108e-05
9 *328:8 *1633:B 3.09164e-05
10 *328:8 *1944:A 9.54399e-05
11 *328:8 *1986:A 3.50033e-05
12 *1736:A1 *1736:A3 0.000193801
*RES
1 *1612:Y *328:8 4.725 
2 *328:8 *1736:A3 5.43 
3 *328:8 *1842:B1 6.45 
*END

*D_NET *329 0.00403171
*CONN
*I *1789:A1 I *D sky130_fd_sc_hd__o21bai_2
*I *1726:A I *D sky130_fd_sc_hd__and2_2
*I *1728:A2 I *D sky130_fd_sc_hd__a21oi_2
*I *1731:A2 I *D sky130_fd_sc_hd__a21oi_2
*I *1613:Y O *D sky130_fd_sc_hd__inv_2
*CAP
1 *1789:A1 0
2 *1726:A 0.000348498
3 *1728:A2 3.35437e-05
4 *1731:A2 3.14415e-05
5 *1613:Y 0.000218148
6 *329:14 6.49851e-05
7 *329:12 0.00075635
8 *329:10 0.000625999
9 *1726:A *1730:B 1.00941e-05
10 *1726:A *2057:CLK 0.000244718
11 *1728:A2 *1731:A1 0.000117437
12 *1731:A2 *1731:A1 4.20057e-05
13 *1731:A2 *1732:A2 3.45708e-05
14 *329:10 *1759:A_N 0.000194694
15 *329:10 *1788:B1 4.11194e-05
16 *329:12 *1706:D 0.000169472
17 *329:12 *1707:A 0.000181376
18 *329:12 *1708:A_N 5.38986e-06
19 *329:12 *1731:B1 0.000410914
20 *329:12 *1732:A1 5.06382e-06
21 *329:12 *1732:B1 9.05545e-05
22 *329:12 *1785:B1 1.18673e-05
23 *329:12 *1786:B1 8.26614e-05
24 *329:12 *1788:B1 4.18603e-06
25 *329:12 *705:12 0
26 *329:12 *723:19 0.000240274
27 *329:12 *724:16 6.6348e-05
28 *329:12 *733:20 0
29 *2063:RESET_B *329:12 0
*RES
1 *1613:Y *329:10 6.81 
2 *329:10 *329:12 10.815 
3 *329:12 *329:14 2 
4 *329:14 *1731:A2 2.5825 
5 *329:14 *1728:A2 2.755 
6 *329:12 *1726:A 5.3949 
7 *329:10 *1789:A1 3.6 
*END

*D_NET *330 0.00226533
*CONN
*I *1783:A2 I *D sky130_fd_sc_hd__a22o_2
*I *1722:A2 I *D sky130_fd_sc_hd__o31a_2
*I *1614:Y O *D sky130_fd_sc_hd__inv_2
*CAP
1 *1783:A2 0.000425584
2 *1722:A2 8.10815e-05
3 *1614:Y 5.4093e-05
4 *330:6 0.000560759
5 *1722:A2 *1621:A2 2.67184e-05
6 *1722:A2 *1722:A1 3.26889e-05
7 *1722:A2 *1722:A3 5.93479e-05
8 *1722:A2 *1722:B1 4.37684e-05
9 *1783:A2 *1841:B 0
10 *1783:A2 *450:12 0.000401256
11 *1783:A2 *535:15 0
12 *1783:A2 *535:133 5.86378e-05
13 *1783:A2 *551:10 0.000113097
14 *1783:A2 *734:8 0.000273001
15 *330:6 *1722:B1 0.0001249
16 *2052:RESET_B *1783:A2 1.0397e-05
17 *2059:RESET_B *1783:A2 0
*RES
1 *1614:Y *330:6 2.74 
2 *330:6 *1722:A2 3.355 
3 *330:6 *1783:A2 15.4625 
*END

*D_NET *331 0.00259528
*CONN
*I *1722:A3 I *D sky130_fd_sc_hd__o31a_2
*I *1721:A2 I *D sky130_fd_sc_hd__o31a_2
*I *1784:A I *D sky130_fd_sc_hd__nor2_2
*I *1615:Y O *D sky130_fd_sc_hd__inv_2
*CAP
1 *1722:A3 0.00031211
2 *1721:A2 0
3 *1784:A 0.000127706
4 *1615:Y 0.000310868
5 *331:10 0.000232808
6 *331:6 0.000728079
7 *1722:A3 *1621:A2 1.66291e-05
8 *1722:A3 *1621:B1 0.000198934
9 *1722:A3 *1722:A1 0.000123225
10 *1722:A3 *535:15 3.86607e-05
11 *1722:A3 *734:8 7.47215e-05
12 *1784:A *1721:B1 6.47594e-05
13 *1784:A *1783:B1 2.03321e-05
14 *1784:A *2185:A 0
15 *331:6 *335:10 0.000256469
16 *331:6 *734:71 9.80032e-06
17 *331:10 *1616:A 0
18 *331:10 *1721:B1 5.53249e-06
19 *331:10 *1783:B1 1.52945e-05
20 *331:10 *727:40 0
21 *1722:A2 *1722:A3 5.93479e-05
*RES
1 *1615:Y *331:6 5.845 
2 *331:6 *331:10 3.635 
3 *331:10 *1784:A 5.94 
4 *331:10 *1721:A2 3.6 
5 *331:6 *1722:A3 11.195 
*END

*D_NET *332 0.00274124
*CONN
*I *1783:B1 I *D sky130_fd_sc_hd__a22o_2
*I *1721:A3 I *D sky130_fd_sc_hd__o31a_2
*I *1616:Y O *D sky130_fd_sc_hd__inv_2
*CAP
1 *1783:B1 0.000295722
2 *1721:A3 0
3 *1616:Y 0.000314662
4 *332:6 0.000610384
5 *1783:B1 *1626:A 0
6 *1783:B1 *1721:B1 0.000116165
7 *1783:B1 *1783:A1 0.000107829
8 *1783:B1 *1783:B2 0.000201518
9 *1783:B1 *2059:CLK 7.49327e-05
10 *1783:B1 *2185:A 0
11 *1783:B1 *727:25 0.000139245
12 *1783:B1 *727:40 0.000194258
13 *332:6 *2059:CLK 0.000650898
14 *1784:A *1783:B1 2.03321e-05
15 *331:10 *1783:B1 1.52945e-05
*RES
1 *1616:Y *332:6 7.57 
2 *332:6 *1721:A3 1.6 
3 *332:6 *1783:B1 13.52 
*END

*D_NET *333 0.00141297
*CONN
*I *1629:A I *D sky130_fd_sc_hd__nand2_2
*I *1632:B2 I *D sky130_fd_sc_hd__a22o_2
*I *1775:B1 I *D sky130_fd_sc_hd__a21oi_2
*I *1617:Y O *D sky130_fd_sc_hd__inv_2
*CAP
1 *1629:A 0.000117957
2 *1632:B2 0
3 *1775:B1 0.000282013
4 *1617:Y 0.000136751
5 *333:6 0.000300806
6 *1629:A *1627:B 1.14169e-05
7 *1629:A *1628:A 7.14511e-05
8 *1629:A *779:14 2.20014e-05
9 *1775:B1 *1628:A 8.38498e-06
10 *1775:B1 *1776:B 4.89295e-05
11 *1775:B1 *1933:A 8.64421e-05
12 *1775:B1 *1973:A 1.14169e-05
13 *1775:B1 *551:24 6.6699e-05
14 *1775:B1 *551:33 1.38867e-05
15 *1775:B1 *779:10 6.61181e-05
16 *333:6 *1632:B1 8.51879e-05
17 *333:6 *779:14 8.35068e-05
*RES
1 *1617:Y *333:6 2.395 
2 *333:6 *1775:B1 10.88 
3 *333:6 *1632:B2 1.6 
4 *1617:Y *1629:A 9.285 
*END

*D_NET *334 0.000642367
*CONN
*I *1798:A2 I *D sky130_fd_sc_hd__a21o_2
*I *1620:Y O *D sky130_fd_sc_hd__nand2_2
*CAP
1 *1798:A2 6.76199e-05
2 *1620:Y 6.76199e-05
3 *1798:A2 *1620:A 0.000324123
4 *1798:A2 *1620:B 0.000123955
5 *13:14 *1798:A2 5.90495e-05
*RES
1 *1620:Y *1798:A2 6.065 
*END

*D_NET *335 0.0035587
*CONN
*I *1631:B I *D sky130_fd_sc_hd__and3_2
*I *1624:A I *D sky130_fd_sc_hd__nand2_2
*I *1800:A I *D sky130_fd_sc_hd__and2_2
*I *1621:X O *D sky130_fd_sc_hd__a31o_2
*CAP
1 *1631:B 0.000255915
2 *1624:A 0.000169197
3 *1800:A 0
4 *1621:X 0.000395498
5 *335:23 0.000606392
6 *335:10 0.000576779
7 *1624:A *1624:B 3.26526e-05
8 *1624:A *337:16 3.23955e-05
9 *1624:A *338:12 1.19928e-05
10 *1631:B *1631:A 0
11 *1631:B *1631:C 7.06865e-05
12 *1631:B *1801:B 2.23922e-05
13 *1631:B *1932:A 0.000236729
14 *1631:B *338:12 0
15 *1631:B *684:10 0
16 *335:10 *1615:A 4.85494e-05
17 *335:10 *1623:A3 4.82863e-05
18 *335:10 *1628:C 0.000100139
19 *335:10 *1632:A2 0.000102403
20 *335:10 *2159:A 0
21 *335:10 *734:71 0.000217861
22 *335:23 *1632:A2 2.05583e-05
23 *335:23 *1801:B 0.000259064
24 *335:23 *2159:A 0
25 *2103:D *335:23 9.47454e-05
26 *2104:D *335:23 0
27 *331:6 *335:10 0.000256469
*RES
1 *1621:X *335:10 12.75 
2 *335:10 *1800:A 3.6 
3 *335:10 *335:23 4.485 
4 *335:23 *1624:A 6.135 
5 *335:23 *1631:B 7.665 
*END

*D_NET *336 0.000111545
*CONN
*I *1799:A2 I *D sky130_fd_sc_hd__a21o_2
*I *1622:Y O *D sky130_fd_sc_hd__nand2_2
*CAP
1 *1799:A2 5.81042e-06
2 *1622:Y 5.81042e-06
3 *1799:A2 *341:31 4.99619e-05
4 *1799:A2 *539:20 4.99619e-05
*RES
1 *1622:Y *1799:A2 3.65 
*END

*D_NET *337 0.00321098
*CONN
*I *1631:C I *D sky130_fd_sc_hd__and3_2
*I *1801:A I *D sky130_fd_sc_hd__and2_2
*I *1624:B I *D sky130_fd_sc_hd__nand2_2
*I *1623:X O *D sky130_fd_sc_hd__a31o_2
*CAP
1 *1631:C 0.000277351
2 *1801:A 0
3 *1624:B 3.55512e-05
4 *1623:X 0.000537031
5 *337:16 0.000198355
6 *337:12 0.000977186
7 *1624:B *338:12 1.08758e-05
8 *1631:C *1631:A 4.66108e-05
9 *1631:C *1826:A1 1.70935e-05
10 *1631:C *1826:B1 1.70935e-05
11 *1631:C *1827:B 4.82863e-05
12 *1631:C *684:10 0
13 *1631:C *685:6 0.000106412
14 *1631:C *685:10 1.41095e-05
15 *1631:C *685:26 0
16 *337:12 *1622:B 0
17 *337:12 *2104:CLK 0.000204026
18 *337:12 *2159:A 0.000240371
19 *337:12 *341:31 0
20 *337:12 *711:20 0.000115691
21 *1624:A *1624:B 3.26526e-05
22 *1624:A *337:16 3.23955e-05
23 *1631:B *1631:C 7.06865e-05
24 *2103:RESET_B *337:12 0.000229203
*RES
1 *1623:X *337:12 15.98 
2 *337:12 *337:16 2.1 
3 *337:16 *1624:B 2.41 
4 *337:16 *1801:A 1.6 
5 *337:12 *1631:C 10.475 
*END

*D_NET *338 0.00153378
*CONN
*I *1630:A2 I *D sky130_fd_sc_hd__a22o_2
*I *1777:A2 I *D sky130_fd_sc_hd__a21o_2
*I *1624:Y O *D sky130_fd_sc_hd__nand2_2
*CAP
1 *1630:A2 2.36065e-06
2 *1777:A2 8.3986e-05
3 *1624:Y 0.000207766
4 *338:12 0.000294112
5 *1630:A2 *1630:B1 1.37395e-05
6 *1777:A2 *1630:B1 4.53904e-05
7 *1777:A2 *1630:B2 4.77719e-05
8 *1777:A2 *1777:A1 3.13354e-05
9 *1777:A2 *1801:B 0
10 *1777:A2 *341:31 3.7022e-05
11 *1777:A2 *342:21 0
12 *1777:A2 *778:36 0.000197822
13 *338:12 *1630:A1 5.16348e-05
14 *338:12 *1631:A 0.000361313
15 *338:12 *1632:A2 1.94892e-05
16 *338:12 *1801:B 0.000117166
17 *1624:A *338:12 1.19928e-05
18 *1624:B *338:12 1.08758e-05
19 *1631:B *338:12 0
*RES
1 *1624:Y *338:12 10.745 
2 *338:12 *1777:A2 4.495 
3 *338:12 *1630:A2 1.72375 
*END

*D_NET *339 0.00110351
*CONN
*I *1760:A1 I *D sky130_fd_sc_hd__a31oi_2
*I *1625:Y O *D sky130_fd_sc_hd__nand2_2
*CAP
1 *1760:A1 0.000130554
2 *1625:Y 0.000130554
3 *1760:A1 *1760:B1 0.000375681
4 *1760:A1 *1788:A2 8.41384e-05
5 *1760:A1 *445:18 8.41384e-05
6 *1760:A1 *555:80 0.000204352
7 *2085:D *1760:A1 9.40874e-05
*RES
1 *1625:Y *1760:A1 12.435 
*END

*D_NET *340 0.0044247
*CONN
*I *1628:C I *D sky130_fd_sc_hd__nand3_2
*I *1627:C I *D sky130_fd_sc_hd__and3_2
*I *1775:A2 I *D sky130_fd_sc_hd__a21oi_2
*I *1760:B1 I *D sky130_fd_sc_hd__a31oi_2
*I *1626:X O *D sky130_fd_sc_hd__and3_2
*CAP
1 *1628:C 0.000184244
2 *1627:C 0.000394984
3 *1775:A2 6.95484e-05
4 *1760:B1 0.000350237
5 *1626:X 0
6 *340:30 0.000754104
7 *340:19 0.000330723
8 *340:6 0.000436536
9 *1627:C *1632:A1 0.000198939
10 *1627:C *1632:B1 0.000315889
11 *1627:C *2059:CLK 9.80943e-06
12 *1628:C *1632:A2 0
13 *1628:C *1973:A 9.71043e-05
14 *1760:B1 *1626:C 0.000110074
15 *1760:B1 *1781:A_N 0
16 *1760:B1 *1788:A2 0
17 *1760:B1 *1980:A 0.00012657
18 *1760:B1 *441:8 4.99619e-05
19 *1760:B1 *449:12 0
20 *1760:B1 *555:80 6.68891e-05
21 *1775:A2 *551:24 0.000197858
22 *1775:A2 *555:80 4.77769e-05
23 *340:30 *1973:A 0.000109744
24 *340:30 *551:24 0
25 *340:30 *551:33 0
26 *1760:A1 *1760:B1 0.000375681
27 *2084:D *1628:C 4.76659e-05
28 *2084:D *340:30 5.02217e-05
29 *335:10 *1628:C 0.000100139
*RES
1 *1626:X *340:6 3.6 
2 *340:6 *1760:B1 11.73 
3 *340:6 *340:19 1.38 
4 *340:19 *1775:A2 5.43 
5 *340:19 *340:30 3.675 
6 *340:30 *1627:C 8.88 
7 *340:30 *1628:C 7.65 
*END

*D_NET *341 0.00559789
*CONN
*I *1799:B1 I *D sky130_fd_sc_hd__a21o_2
*I *1798:B1 I *D sky130_fd_sc_hd__a21o_2
*I *1777:B1 I *D sky130_fd_sc_hd__a21o_2
*I *1627:X O *D sky130_fd_sc_hd__and3_2
*CAP
1 *1799:B1 0
2 *1798:B1 0.000427127
3 *1777:B1 3.40913e-05
4 *1627:X 0.000178995
5 *341:31 0.00155004
6 *341:12 0.001336
7 *1777:B1 *1777:A1 5.12969e-06
8 *1798:B1 *1622:A 0
9 *1798:B1 *535:13 3.1835e-05
10 *1798:B1 *535:15 4.20983e-05
11 *1798:B1 *535:209 8.53255e-05
12 *1798:B1 *711:10 5.53249e-06
13 *1798:B1 *711:20 2.7881e-05
14 *1798:B1 *727:40 1.22676e-05
15 *1798:B1 *734:44 0.000198939
16 *341:12 *345:12 0.000240889
17 *341:31 *1622:B 8.98913e-05
18 *341:31 *1623:A1 4.41506e-05
19 *341:31 *1623:B1 0.00018305
20 *341:31 *1630:B1 0.000161529
21 *341:31 *1630:B2 2.64559e-05
22 *341:31 *342:21 0.000147196
23 *341:31 *539:20 0.000166249
24 *341:31 *539:63 2.96426e-05
25 *341:31 *684:10 3.60256e-05
26 *341:31 *711:20 0.000353429
27 *341:31 *778:25 1.27028e-05
28 *341:31 *778:36 7.46328e-06
29 *1777:A2 *341:31 3.7022e-05
30 *1799:A2 *341:31 4.99619e-05
31 *2013:D *341:12 4.11678e-06
32 *2013:D *341:31 3.1562e-06
33 *2104:D *341:31 1.16646e-05
34 *2123:A *1798:B1 4.43344e-05
35 *13:14 *1798:B1 1.36995e-05
36 *337:12 *341:31 0
*RES
1 *1627:X *341:12 8.96 
2 *341:12 *1777:B1 2.215 
3 *341:12 *341:31 21.715 
4 *341:31 *1798:B1 13.58 
5 *341:31 *1799:B1 1.6 
*END

*D_NET *342 0.00180914
*CONN
*I *1801:B I *D sky130_fd_sc_hd__and2_2
*I *1800:B I *D sky130_fd_sc_hd__and2_2
*I *1630:B1 I *D sky130_fd_sc_hd__a22o_2
*I *1628:Y O *D sky130_fd_sc_hd__nand3_2
*CAP
1 *1801:B 0.000230926
2 *1800:B 0
3 *1630:B1 4.1564e-05
4 *1628:Y 7.88439e-05
5 *342:21 0.000295261
6 *342:10 0.000184743
7 *1630:B1 *1632:A2 3.64998e-06
8 *1801:B *1632:A2 8.53113e-06
9 *342:10 *1628:B 1.26626e-05
10 *342:10 *1630:B2 0
11 *342:10 *1632:A2 0.000162311
12 *342:10 *2031:CLK 8.53113e-06
13 *342:21 *1632:A2 1.56428e-05
14 *1630:A2 *1630:B1 1.37395e-05
15 *1631:B *1801:B 2.23922e-05
16 *1777:A2 *1630:B1 4.53904e-05
17 *1777:A2 *1801:B 0
18 *1777:A2 *342:21 0
19 *335:23 *1801:B 0.000259064
20 *338:12 *1801:B 0.000117166
21 *341:31 *1630:B1 0.000161529
22 *341:31 *342:21 0.000147196
*RES
1 *1628:Y *342:10 7.49 
2 *342:10 *1630:B1 3.085 
3 *342:10 *342:21 1.845 
4 *342:21 *1800:B 1.6 
5 *342:21 *1801:B 11.345 
*END

*D_NET *343 0.000527686
*CONN
*I *1630:B2 I *D sky130_fd_sc_hd__a22o_2
*I *1629:Y O *D sky130_fd_sc_hd__nand2_2
*CAP
1 *1630:B2 0.000215767
2 *1629:Y 0.000215767
3 *1630:B2 *1630:A1 4.1652e-06
4 *1630:B2 *2031:CLK 1.77595e-05
5 *1777:A2 *1630:B2 4.77719e-05
6 *341:31 *1630:B2 2.64559e-05
7 *342:10 *1630:B2 0
*RES
1 *1629:Y *1630:B2 10.395 
*END

*D_NET *344 0.00088589
*CONN
*I *1632:A2 I *D sky130_fd_sc_hd__a22o_2
*I *1630:X O *D sky130_fd_sc_hd__a22o_2
*CAP
1 *1632:A2 0.000197837
2 *1630:X 0.000197837
3 *1632:A2 *1632:A1 1.37395e-05
4 *1632:A2 *2031:CLK 8.6099e-05
5 *1632:A2 *2059:CLK 1.2818e-05
6 *1632:A2 *551:33 1.70935e-05
7 *1628:C *1632:A2 0
8 *1630:B1 *1632:A2 3.64998e-06
9 *1801:B *1632:A2 8.53113e-06
10 *2084:D *1632:A2 2.7881e-05
11 *335:10 *1632:A2 0.000102403
12 *335:23 *1632:A2 2.05583e-05
13 *338:12 *1632:A2 1.94892e-05
14 *342:10 *1632:A2 0.000162311
15 *342:21 *1632:A2 1.56428e-05
*RES
1 *1630:X *1632:A2 12.4688 
*END

*D_NET *345 0.00340471
*CONN
*I *1632:B1 I *D sky130_fd_sc_hd__a22o_2
*I *1776:A I *D sky130_fd_sc_hd__or2_2
*I *1631:X O *D sky130_fd_sc_hd__and3_2
*CAP
1 *1632:B1 0.000126257
2 *1776:A 0.000113855
3 *1631:X 0.000613901
4 *345:12 0.000854013
5 *1632:B1 *1617:A 9.13949e-06
6 *1632:B1 *1627:B 3.16198e-05
7 *1632:B1 *1776:B 4.66108e-05
8 *1632:B1 *2059:CLK 5.83121e-06
9 *1632:B1 *555:31 6.20972e-05
10 *1632:B1 *779:14 4.2507e-05
11 *1776:A *1776:B 0.000121019
12 *345:12 *1627:A 6.23541e-06
13 *345:12 *1629:B 0.000202076
14 *345:12 *1776:B 2.84864e-05
15 *345:12 *1932:A 0.000158385
16 *345:12 *555:31 4.86642e-05
17 *345:12 *685:10 0.000160314
18 *345:12 *778:10 8.12102e-05
19 *1627:C *1632:B1 0.000315889
20 *2013:SET_B *345:12 5.05228e-05
21 *333:6 *1632:B1 8.51879e-05
22 *341:12 *345:12 0.000240889
*RES
1 *1631:X *345:12 17.9 
2 *345:12 *1776:A 3.43 
3 *345:12 *1632:B1 6.085 
*END

*D_NET *346 0.00500803
*CONN
*I *1778:A2 I *D sky130_fd_sc_hd__a22o_2
*I *1640:A1 I *D sky130_fd_sc_hd__mux2_1
*I *1634:A_N I *D sky130_fd_sc_hd__nand2b_2
*I *1794:C1 I *D sky130_fd_sc_hd__a211o_2
*I *1633:X O *D sky130_fd_sc_hd__and3_2
*CAP
1 *1778:A2 0.000477953
2 *1640:A1 0.000167064
3 *1634:A_N 0
4 *1794:C1 0.000564949
5 *1633:X 0.000250521
6 *346:23 0.000167064
7 *346:21 0.000530695
8 *346:8 0.000868211
9 *1640:A1 *1634:B 0.000198939
10 *1640:A1 *775:14 3.83041e-05
11 *1778:A2 *1778:A1 0.000140661
12 *1778:A2 *1778:B1 0.000399417
13 *1778:A2 *538:65 7.16445e-05
14 *1778:A2 *775:14 1.4174e-05
15 *1794:C1 *1743:A1 6.77501e-05
16 *1794:C1 *1743:B1 9.27495e-05
17 *1794:C1 *1778:B1 0
18 *1794:C1 *2095:CLK 5.25415e-05
19 *1794:C1 *2152:A 0.000183608
20 *1794:C1 *535:176 0
21 *1794:C1 *537:8 4.82863e-05
22 *1794:C1 *538:10 5.87474e-05
23 *1794:C1 *538:12 7.18346e-05
24 *1794:C1 *538:65 9.16958e-05
25 *346:8 *1736:B1 5.05437e-05
26 *346:21 *538:65 3.61777e-05
27 *1643:B1 *1640:A1 6.1357e-05
28 *1736:A1 *346:8 2.96334e-05
29 *2082:D *1794:C1 3.09164e-05
30 *2082:D *346:21 0.000101872
31 *2170:A *1640:A1 6.71882e-05
32 *2170:A *1778:A2 7.10015e-05
33 *2170:A *346:21 2.53191e-06
*RES
1 *1633:X *346:8 6.465 
2 *346:8 *1794:C1 16.155 
3 *346:8 *346:21 1.38 
4 *346:21 *346:23 2 
5 *346:23 *1634:A_N 1.6 
6 *346:23 *1640:A1 5.425 
7 *346:21 *1778:A2 13.365 
*END

*D_NET *347 0.00171269
*CONN
*I *1779:B1_N I *D sky130_fd_sc_hd__a21bo_2
*I *1644:A2 I *D sky130_fd_sc_hd__a31o_2
*I *1642:A2 I *D sky130_fd_sc_hd__a31oi_2
*I *1634:Y O *D sky130_fd_sc_hd__nand2b_2
*CAP
1 *1779:B1_N 0.000147134
2 *1644:A2 0
3 *1642:A2 7.74996e-05
4 *1634:Y 0
5 *347:10 0.000185775
6 *347:6 0.000255409
7 *1642:A2 *1644:A1 4.60584e-05
8 *1642:A2 *1644:A3 0.000212713
9 *1642:A2 *1644:B1 0.000124895
10 *1642:A2 *350:14 4.82863e-05
11 *1779:B1_N *1778:B1 0
12 *1779:B1_N *1779:A2 0
13 *1779:B1_N *2016:CLK 8.53089e-05
14 *1779:B1_N *775:14 0
15 *347:10 *1778:B1 0
16 *347:10 *775:14 0
17 *2015:D *1779:B1_N 2.75229e-05
18 *2015:SET_B *1779:B1_N 7.63125e-05
19 *2082:D *347:10 2.37234e-05
20 *2170:A *1779:B1_N 0.00028589
21 *2170:A *347:10 0.000116165
*RES
1 *1634:Y *347:6 3.6 
2 *347:6 *347:10 4.145 
3 *347:10 *1642:A2 4.39 
4 *347:10 *1644:A2 1.6 
5 *347:6 *1779:B1_N 7.81875 
*END

*D_NET *348 0.00360575
*CONN
*I *1743:A1 I *D sky130_fd_sc_hd__a31o_2
*I *1635:Y O *D sky130_fd_sc_hd__nand2_2
*CAP
1 *1743:A1 0.00118261
2 *1635:Y 0.00118261
3 *1743:A1 *1636:C 0.000137313
4 *1743:A1 *1743:B1 0.000117397
5 *1743:A1 *1792:B 1.44259e-05
6 *1743:A1 *1987:A 0.0001249
7 *1743:A1 *2125:A 5.05521e-05
8 *1743:A1 *537:8 4.82863e-05
9 *1743:A1 *694:27 0
10 *1743:A1 *701:57 0
11 *1743:A1 *719:10 8.69157e-05
12 *1743:A1 *719:14 0.000203769
13 *1743:A1 *719:60 0
14 *1743:A1 *719:66 0.000201835
15 *1794:C1 *1743:A1 6.77501e-05
16 *2092:D *1743:A1 0.000148424
17 *2098:RESET_B *1743:A1 3.89528e-05
*RES
1 *1635:Y *1743:A1 26.535 
*END

*D_NET *349 0.00305518
*CONN
*I *1637:B I *D sky130_fd_sc_hd__and2_2
*I *1638:B I *D sky130_fd_sc_hd__nand2_2
*I *1743:B1 I *D sky130_fd_sc_hd__a31o_2
*I *1636:X O *D sky130_fd_sc_hd__and3_2
*CAP
1 *1637:B 9.58499e-05
2 *1638:B 0
3 *1743:B1 0.00038602
4 *1636:X 0.000219267
5 *349:19 0.000271011
6 *349:6 0.000780448
7 *1637:B *1637:A 0.000171875
8 *1637:B *351:10 1.21329e-05
9 *1637:B *556:106 9.12494e-06
10 *1743:B1 *1796:A 0
11 *1743:B1 *2125:A 4.80285e-05
12 *1743:B1 *719:66 4.99619e-05
13 *349:6 *719:66 0.000454522
14 *349:19 *2095:D 3.39064e-05
15 *349:19 *2152:A 0
16 *349:19 *556:88 9.37731e-05
17 *349:19 *556:106 0.000219117
18 *1743:A1 *1743:B1 0.000117397
19 *1794:C1 *1743:B1 9.27495e-05
*RES
1 *1636:X *349:6 5.845 
2 *349:6 *1743:B1 8.185 
3 *349:6 *349:19 5.675 
4 *349:19 *1638:B 3.6 
5 *349:19 *1637:B 6 
*END

*D_NET *350 0.00265502
*CONN
*I *1779:A2 I *D sky130_fd_sc_hd__a21bo_2
*I *1642:A3 I *D sky130_fd_sc_hd__a31oi_2
*I *1644:A3 I *D sky130_fd_sc_hd__a31o_2
*I *1637:X O *D sky130_fd_sc_hd__and2_2
*CAP
1 *1779:A2 0.000206083
2 *1642:A3 0
3 *1644:A3 0.000116419
4 *1637:X 0.000117412
5 *350:14 0.000157288
6 *350:10 0.000364363
7 *1779:A2 *1639:A 3.09233e-05
8 *1779:A2 *1778:B1 0.000343329
9 *1779:A2 *701:74 0
10 *1779:A2 *776:21 0.000301892
11 *1779:A2 *776:23 0.000108322
12 *1779:A2 *776:25 4.21314e-05
13 *350:10 *1639:A 0.000183286
14 *350:10 *1778:B1 0.000183286
15 *350:10 *2083:CLK 4.77807e-05
16 *350:10 *351:10 0.000114649
17 *350:10 *694:53 5.76956e-05
18 *350:14 *1644:B1 1.91597e-05
19 *1642:A2 *1644:A3 0.000212713
20 *1642:A2 *350:14 4.82863e-05
21 *1779:B1_N *1779:A2 0
22 *2015:SET_B *1779:A2 0
*RES
1 *1637:X *350:10 7.47 
2 *350:10 *350:14 2.795 
3 *350:14 *1644:A3 4.135 
4 *350:14 *1642:A3 1.6 
5 *350:10 *1779:A2 9.825 
*END

*D_NET *351 0.00278983
*CONN
*I *1778:B1 I *D sky130_fd_sc_hd__a22o_2
*I *1639:B I *D sky130_fd_sc_hd__nand2_2
*I *1638:Y O *D sky130_fd_sc_hd__nand2_2
*CAP
1 *1778:B1 0.000461437
2 *1639:B 0
3 *1638:Y 0.000169375
4 *351:10 0.000630812
5 *1778:B1 *1778:A1 3.60457e-05
6 *1778:B1 *775:14 0.00024556
7 *351:10 *1637:A 0.000113222
8 *351:10 *1638:A 1.79174e-05
9 *351:10 *694:53 6.26426e-05
10 *1637:B *351:10 1.21329e-05
11 *1778:A2 *1778:B1 0.000399417
12 *1779:A2 *1778:B1 0.000343329
13 *1779:B1_N *1778:B1 0
14 *1794:C1 *1778:B1 0
15 *2082:D *1778:B1 0
16 *347:10 *1778:B1 0
17 *350:10 *1778:B1 0.000183286
18 *350:10 *351:10 0.000114649
*RES
1 *1638:Y *351:10 7.47 
2 *351:10 *1639:B 3.6 
3 *351:10 *1778:B1 14.775 
*END

*D_NET *352 0.00118507
*CONN
*I *1641:A1 I *D sky130_fd_sc_hd__a21oi_2
*I *1643:A1 I *D sky130_fd_sc_hd__a21oi_2
*I *1639:Y O *D sky130_fd_sc_hd__nand2_2
*CAP
1 *1641:A1 0
2 *1643:A1 0.000191289
3 *1639:Y 0.000138669
4 *352:8 0.000329958
5 *1643:A1 *1641:A2 0.000359295
6 *1643:A1 *1641:B1 0
7 *1643:A1 *1935:A 0
8 *352:8 *1641:A2 4.66108e-05
9 *352:8 *1642:B1 0.000119247
*RES
1 *1639:Y *352:8 4.135 
2 *352:8 *1643:A1 9.785 
3 *352:8 *1641:A1 1.6 
*END

*D_NET *353 0.00147271
*CONN
*I *1643:A2 I *D sky130_fd_sc_hd__a21oi_2
*I *1641:A2 I *D sky130_fd_sc_hd__a21oi_2
*I *1640:X O *D sky130_fd_sc_hd__mux2_1
*CAP
1 *1643:A2 7.83331e-05
2 *1641:A2 0.000161367
3 *1640:X 0.000127236
4 *353:8 0.000366936
5 *1641:A2 *1642:B1 2.68721e-05
6 *1641:A2 *1644:B1 5.21046e-05
7 *1641:A2 *2083:D 0.000135568
8 *1641:A2 *701:74 0
9 *1643:A1 *1641:A2 0.000359295
10 *1643:B1 *353:8 0.000118391
11 *352:8 *1641:A2 4.66108e-05
*RES
1 *1640:X *353:8 3.79 
2 *353:8 *1641:A2 10.49 
3 *353:8 *1643:A2 2.74 
*END

*D_NET *354 0.000691013
*CONN
*I *1642:B1 I *D sky130_fd_sc_hd__a31oi_2
*I *1641:Y O *D sky130_fd_sc_hd__a21oi_2
*CAP
1 *1642:B1 0.000184661
2 *1641:Y 0.000184661
3 *1642:B1 *2083:D 9.51046e-05
4 *1642:B1 *701:74 8.04668e-05
5 *1641:A2 *1642:B1 2.68721e-05
6 *352:8 *1642:B1 0.000119247
*RES
1 *1641:Y *1642:B1 11.01 
*END

*D_NET *355 0.000934343
*CONN
*I *1644:B1 I *D sky130_fd_sc_hd__a31o_2
*I *1643:Y O *D sky130_fd_sc_hd__a21oi_2
*CAP
1 *1644:B1 0.000201559
2 *1643:Y 0.000201559
3 *1644:B1 *1644:A1 0.000196364
4 *1644:B1 *701:74 5.21046e-05
5 *1641:A2 *1644:B1 5.21046e-05
6 *1642:A2 *1644:B1 0.000124895
7 *2179:A *1644:B1 8.65961e-05
8 *350:14 *1644:B1 1.91597e-05
*RES
1 *1643:Y *1644:B1 11.88 
*END

*D_NET *356 0.00136957
*CONN
*I *1676:C I *D sky130_fd_sc_hd__or4_2
*I *1645:Y O *D sky130_fd_sc_hd__nand2_2
*CAP
1 *1676:C 0.00024984
2 *1645:Y 0.00024984
3 *1676:C *1645:A 4.82863e-05
4 *1676:C *1647:A 9.14049e-05
5 *1676:C *1675:A 0.000371871
6 *1676:C *1676:D 3.09233e-05
7 *1676:C *1677:C 2.7881e-05
8 *1676:C *1840:D 0
9 *1676:C *2075:CLK 0
10 *1676:C *385:29 0
11 *1676:C *756:18 3.98956e-05
12 *1676:C *763:22 0.000146319
13 *1676:C *764:37 6.57653e-06
14 *1676:C *766:28 5.84456e-05
15 *1676:C *773:18 4.82863e-05
*RES
1 *1645:Y *1676:C 14.385 
*END

*D_NET *357 0.000419269
*CONN
*I *1648:B I *D sky130_fd_sc_hd__and3_2
*I *1646:X O *D sky130_fd_sc_hd__and4_2
*CAP
1 *1648:B 0.000148061
2 *1646:X 0.000148061
3 *1648:B *1840:A 0
4 *1648:B *1840:C 4.91189e-05
5 *1648:B *1840:D 0
6 *1648:B *766:28 0
7 *1648:B *767:25 0
8 *1648:B *773:18 7.4027e-05
*RES
1 *1646:X *1648:B 10.11 
*END

*D_NET *358 0.00119896
*CONN
*I *1648:C I *D sky130_fd_sc_hd__and3_2
*I *1647:X O *D sky130_fd_sc_hd__and3_2
*CAP
1 *1648:C 0.000271044
2 *1647:X 0.000271044
3 *1648:C *1647:A 4.66108e-05
4 *1648:C *1677:A 8.8266e-05
5 *1648:C *1677:C 0.000159741
6 *1648:C *1677:D 4.62585e-05
7 *1648:C *359:6 9.95136e-05
8 *1648:C *756:18 2.75229e-05
9 *1648:C *767:42 0.000188957
*RES
1 *1647:X *1648:C 9.29 
*END

*D_NET *359 0.00403146
*CONN
*I *1661:B I *D sky130_fd_sc_hd__and3_2
*I *1657:C I *D sky130_fd_sc_hd__nand4_2
*I *1682:A1 I *D sky130_fd_sc_hd__a21oi_2
*I *1648:X O *D sky130_fd_sc_hd__and3_2
*CAP
1 *1661:B 0.000464138
2 *1657:C 1.57107e-05
3 *1682:A1 0.000178804
4 *1648:X 0.000409555
5 *359:12 0.00041717
6 *359:6 0.00109635
7 *1657:C *674:36 0
8 *1661:B *1684:B 8.52845e-05
9 *1661:B *1684:C 1.74446e-05
10 *1661:B *1837:A 0.000185411
11 *1661:B *385:29 0
12 *1661:B *387:10 0.000114852
13 *1661:B *696:80 3.00381e-05
14 *1661:B *763:18 0.00010052
15 *1682:A1 *1682:B1 2.10214e-05
16 *1682:A1 *674:36 0.000263667
17 *359:6 *1657:A 2.05056e-05
18 *359:6 *1673:B 2.20732e-05
19 *359:6 *1677:A 5.05437e-05
20 *359:6 *1677:C 0.000158072
21 *359:6 *767:42 6.97202e-05
22 *359:12 *1657:A 5.13714e-05
23 *359:12 *1673:B 2.14569e-05
24 *359:12 *1681:C1 5.83646e-05
25 *359:12 *1682:B1 4.85381e-05
26 *359:12 *368:6 3.13354e-05
27 *1648:C *359:6 9.95136e-05
*RES
1 *1648:X *359:6 8.26 
2 *359:6 *359:12 4.185 
3 *359:12 *1682:A1 4.825 
4 *359:12 *1657:C 1.96 
5 *359:6 *1661:B 14.285 
*END

*D_NET *360 0.00300225
*CONN
*I *1650:B I *D sky130_fd_sc_hd__and2_2
*I *1805:B I *D sky130_fd_sc_hd__xor2_2
*I *1804:A I *D sky130_fd_sc_hd__nor2_2
*I *1649:X O *D sky130_fd_sc_hd__and3_2
*CAP
1 *1650:B 0.000207553
2 *1805:B 8.68306e-05
3 *1804:A 7.48712e-05
4 *1649:X 0
5 *360:21 0.00081439
6 *360:6 0.000594878
7 *1650:B *1650:A 0.000274346
8 *1650:B *1925:A3 0
9 *1650:B *1925:B1 8.39202e-06
10 *1650:B *1928:A_N 4.77757e-05
11 *1650:B *2121:D 0.000109187
12 *1650:B *549:68 0
13 *1804:A *687:36 0.000113697
14 *1805:B *1805:A 8.52977e-05
15 *360:21 *1651:C 0
16 *360:21 *1806:A 0.000282919
17 *360:21 *2204:A 8.818e-05
18 *360:21 *687:36 0.000165365
19 *360:21 *687:47 4.85687e-05
20 *360:21 *749:21 0
21 *2121:SET_B *1650:B 0
*RES
1 *1649:X *360:6 3.6 
2 *360:6 *1804:A 4.98 
3 *360:6 *360:21 11.765 
4 *360:21 *1805:B 1.4475 
5 *360:21 *1650:B 10.085 
*END

*D_NET *361 0.00220002
*CONN
*I *1808:C I *D sky130_fd_sc_hd__and3_2
*I *1807:A2 I *D sky130_fd_sc_hd__a21oi_2
*I *1650:X O *D sky130_fd_sc_hd__and2_2
*CAP
1 *1808:C 5.16943e-05
2 *1807:A2 0
3 *1650:X 0.000705525
4 *361:12 0.000757219
5 *1808:C *1807:B1 4.77807e-05
6 *1808:C *1808:B 0.000124007
7 *1808:C *459:43 3.5678e-06
8 *1808:C *750:23 1.16578e-05
9 *1808:C *751:49 3.63576e-05
10 *361:12 *1928:A_N 1.39937e-05
11 *361:12 *2010:A 0.000279733
12 *361:12 *751:8 0.000137071
13 *361:12 *751:14 1.46781e-05
14 *2121:SET_B *361:12 1.67317e-05
*RES
1 *1650:X *361:12 15.68 
2 *361:12 *1807:A2 1.6 
3 *361:12 *1808:C 3.1 
*END

*D_NET *362 0.00387245
*CONN
*I *1659:B I *D sky130_fd_sc_hd__or4_2
*I *1656:A I *D sky130_fd_sc_hd__nor4_4
*I *1806:B I *D sky130_fd_sc_hd__xnor2_2
*I *1651:Y O *D sky130_fd_sc_hd__nand4_2
*CAP
1 *1659:B 0.000326793
2 *1656:A 0.000228887
3 *1806:B 0.000694094
4 *1651:Y 0.000235753
5 *362:26 0.00101402
6 *1656:A *1656:B 0
7 *1656:A *1659:C 3.67779e-05
8 *1656:A *1836:B 0
9 *1656:A *752:26 0.000137571
10 *1659:B *1659:C 7.31906e-05
11 *1659:B *1834:C 1.88904e-05
12 *1659:B *1836:A 0.000116158
13 *1659:B *1836:B 0.0001947
14 *1659:B *750:31 0.000222806
15 *1659:B *752:26 6.21553e-05
16 *1806:B *1651:C 0.00014116
17 *1806:B *747:25 0
18 *362:26 *1806:A 3.16074e-05
19 *362:26 *1834:A 7.82423e-05
20 *362:26 *751:16 0.000259643
*RES
1 *1651:Y *1806:B 11.64 
2 *1806:B *362:26 9.495 
3 *362:26 *1656:A 7.47 
4 *362:26 *1659:B 9.54 
*END

*D_NET *363 0.00164129
*CONN
*I *1653:B I *D sky130_fd_sc_hd__or4b_2
*I *1659:C I *D sky130_fd_sc_hd__or4_2
*I *1652:Y O *D sky130_fd_sc_hd__nand2b_2
*CAP
1 *1653:B 0
2 *1659:C 0.000204938
3 *1652:Y 0.000159529
4 *363:6 0.000364467
5 *1659:C *1836:B 0.000152469
6 *1659:C *1836:D_N 0.000196376
7 *1659:C *750:31 0.000182342
8 *1659:C *751:14 0.000227536
9 *363:6 *1653:A 7.00889e-06
10 *363:6 *752:20 2.10134e-05
11 *363:6 *752:26 1.56428e-05
12 *1656:A *1659:C 3.67779e-05
13 *1659:B *1659:C 7.31906e-05
*RES
1 *1652:Y *363:6 3.43 
2 *363:6 *1659:C 11.45 
3 *363:6 *1653:B 1.6 
*END

*D_NET *364 0.000235782
*CONN
*I *1656:B I *D sky130_fd_sc_hd__nor4_4
*I *1653:X O *D sky130_fd_sc_hd__or4b_2
*CAP
1 *1656:B 5.77976e-05
2 *1653:X 5.77976e-05
3 *1656:B *1836:B 0.000120186
4 *1656:A *1656:B 0
*RES
1 *1653:X *1656:B 8.58 
*END

*D_NET *365 0.00422747
*CONN
*I *1658:A I *D sky130_fd_sc_hd__or3b_2
*I *1656:C I *D sky130_fd_sc_hd__nor4_4
*I *1836:B I *D sky130_fd_sc_hd__or4b_2
*I *1654:X O *D sky130_fd_sc_hd__or3b_2
*CAP
1 *1658:A 0.000103378
2 *1656:C 0
3 *1836:B 0.000318608
4 *1654:X 0.000208171
5 *365:20 0.000663109
6 *365:12 0.000656049
7 *1658:A *1658:B 0.000163204
8 *1658:A *1658:C_N 5.30673e-05
9 *1658:A *1816:B 4.60584e-05
10 *1658:A *1816:C 8.40269e-05
11 *1836:B *1809:A 0.000521592
12 *1836:B *2121:D 2.01259e-05
13 *1836:B *676:10 3.25831e-05
14 *1836:B *751:14 0.000131
15 *365:12 *1658:B 3.09164e-05
16 *365:12 *1819:B1 0
17 *365:12 *2142:A 4.82863e-05
18 *365:12 *367:20 0
19 *365:12 *463:12 0
20 *365:12 *464:10 0
21 *365:12 *674:12 0
22 *365:12 *755:19 0.000116158
23 *365:20 *1816:A 0.000240725
24 *365:20 *1816:C 0.000238137
25 *365:20 *367:12 8.49205e-05
26 *1656:A *1836:B 0
27 *1656:B *1836:B 0.000120186
28 *1659:B *1836:B 0.0001947
29 *1659:C *1836:B 0.000152469
*RES
1 *1654:X *365:12 9.215 
2 *365:12 *365:20 7.14 
3 *365:20 *1836:B 14.615 
4 *365:20 *1656:C 1.6 
5 *365:12 *1658:A 4.48 
*END

*D_NET *366 0.00268374
*CONN
*I *1659:D I *D sky130_fd_sc_hd__or4_2
*I *1835:B1 I *D sky130_fd_sc_hd__a311o_2
*I *1656:D I *D sky130_fd_sc_hd__nor4_4
*I *1655:X O *D sky130_fd_sc_hd__or4_2
*CAP
1 *1659:D 7.93946e-05
2 *1835:B1 9.65904e-05
3 *1656:D 0
4 *1655:X 0.000417015
5 *366:23 0.000474625
6 *366:10 0.000715655
7 *1659:D *1809:A 0.000162325
8 *1659:D *753:32 0
9 *1835:B1 *1835:A1 3.26889e-05
10 *1835:B1 *1835:C1 5.3444e-05
11 *1835:B1 *1836:A 2.39856e-05
12 *1835:B1 *751:14 1.08758e-05
13 *366:10 *1819:B1 0.000130723
14 *366:10 *1825:A 0
15 *366:10 *1825:B 0
16 *366:10 *367:12 9.24049e-05
17 *366:10 *463:8 0
18 *366:10 *463:12 0
19 *366:10 *676:10 0
20 *366:10 *687:18 1.00941e-05
21 *366:10 *744:21 5.83121e-06
22 *366:23 *1809:A 0
23 *366:23 *1836:A 6.42013e-05
24 *366:23 *463:8 0
25 *366:23 *676:10 0
26 *366:23 *752:16 3.23391e-05
27 *366:23 *753:32 0.00013994
28 *2114:D *366:10 0.000141606
*RES
1 *1655:X *366:10 11.805 
2 *366:10 *1656:D 3.6 
3 *366:10 *366:23 7.415 
4 *366:23 *1835:B1 3.445 
5 *366:23 *1659:D 7.49 
*END

*D_NET *367 0.0030978
*CONN
*I *2266:A I *D sky130_fd_sc_hd__clkbuf_2
*I *2393:A I *D sky130_fd_sc_hd__clkbuf_2
*I *1818:A I *D sky130_fd_sc_hd__nor2_2
*I *1656:Y O *D sky130_fd_sc_hd__nor4_4
*CAP
1 *2266:A 0
2 *2393:A 0.000214161
3 *1818:A 0.000167617
4 *1656:Y 0.000113267
5 *367:20 0.000625662
6 *367:12 0.000357151
7 *1818:A *1818:B 4.12321e-05
8 *1818:A *1819:B1 0.000341802
9 *1818:A *2160:A 7.77199e-05
10 *1818:A *464:10 8.05681e-05
11 *2393:A *2142:A 0.000390466
12 *2393:A *755:6 0.000198051
13 *2393:A *755:19 8.65905e-05
14 *367:12 *1825:B 0
15 *367:12 *676:10 4.7043e-05
16 *367:20 *1819:B1 0.000132096
17 *367:20 *464:10 4.7043e-05
18 *365:12 *367:20 0
19 *365:20 *367:12 8.49205e-05
20 *366:10 *367:12 9.24049e-05
*RES
1 *1656:Y *367:12 8.285 
2 *367:12 *367:20 6.17 
3 *367:20 *1818:A 8.685 
4 *367:20 *2393:A 8.88 
5 *367:12 *2266:A 1.6 
*END

*D_NET *368 0.00364137
*CONN
*I *1673:B I *D sky130_fd_sc_hd__and2b_2
*I *1681:C1 I *D sky130_fd_sc_hd__o211a_2
*I *1657:Y O *D sky130_fd_sc_hd__nand4_2
*CAP
1 *1673:B 0.000748045
2 *1681:C1 0.000385218
3 *1657:Y 2.9111e-05
4 *368:6 0.00116237
5 *1673:B *1657:A 7.10707e-05
6 *1673:B *1680:A 2.59265e-05
7 *1673:B *1681:B1 6.98643e-05
8 *1673:B *2075:CLK 2.50251e-05
9 *1673:B *2115:CLK 5.03424e-05
10 *1673:B *385:29 0.000341861
11 *1673:B *541:65 2.09919e-05
12 *1673:B *771:44 8.78735e-05
13 *1681:C1 *1681:A1 0.000101946
14 *1681:C1 *1681:A2 5.73362e-05
15 *1681:C1 *372:14 3.86607e-05
16 *1681:C1 *373:12 9.21064e-05
17 *1681:C1 *373:28 2.03881e-05
18 *2075:D *1673:B 0.000123016
19 *2076:D *1673:B 5.69814e-05
20 *359:6 *1673:B 2.20732e-05
21 *359:12 *1673:B 2.14569e-05
22 *359:12 *1681:C1 5.83646e-05
23 *359:12 *368:6 3.13354e-05
*RES
1 *1657:Y *368:6 2.215 
2 *368:6 *1681:C1 12.005 
3 *368:6 *1673:B 18.89 
*END

*D_NET *369 0.000592877
*CONN
*I *1660:A I *D sky130_fd_sc_hd__nor2_2
*I *1658:X O *D sky130_fd_sc_hd__or3b_2
*CAP
1 *1660:A 0.000211816
2 *1658:X 0.000211816
3 *1660:A *1658:C_N 0.000104626
4 *1660:A *1660:B 9.50342e-06
5 *1660:A *673:10 0
6 *1660:A *754:23 5.51158e-05
7 *2113:RESET_B *1660:A 0
*RES
1 *1658:X *1660:A 11.325 
*END

*D_NET *370 0.00153935
*CONN
*I *1660:B I *D sky130_fd_sc_hd__nor2_2
*I *1659:X O *D sky130_fd_sc_hd__or4_2
*CAP
1 *1660:B 0.000709094
2 *1659:X 0.000709094
3 *1660:B *1814:A1 0
4 *1660:B *673:10 0
5 *1660:B *753:10 0.000105825
6 *1660:B *753:12 5.83121e-06
7 *1660:A *1660:B 9.50342e-06
*RES
1 *1659:X *1660:B 15.585 
*END

*D_NET *371 0.001595
*CONN
*I *1684:C I *D sky130_fd_sc_hd__and3_2
*I *1661:C I *D sky130_fd_sc_hd__and3_2
*I *1660:Y O *D sky130_fd_sc_hd__nor2_2
*CAP
1 *1684:C 0.000189967
2 *1661:C 0
3 *1660:Y 0.000384968
4 *371:6 0.000574935
5 *1684:C *387:10 7.27003e-05
6 *1684:C *696:80 2.05056e-05
7 *371:6 *696:61 8.60799e-05
8 *371:6 *696:80 0.00023701
9 *1661:B *1684:C 1.74446e-05
10 *2113:RESET_B *371:6 1.1392e-05
*RES
1 *1660:Y *371:6 7.57 
2 *371:6 *1661:C 1.6 
3 *371:6 *1684:C 4.135 
*END

*D_NET *372 0.00217842
*CONN
*I *1683:A I *D sky130_fd_sc_hd__nor2_2
*I *1662:C I *D sky130_fd_sc_hd__and3_2
*I *1681:A2 I *D sky130_fd_sc_hd__o211a_2
*I *1661:X O *D sky130_fd_sc_hd__and3_2
*CAP
1 *1683:A 9.2915e-05
2 *1662:C 3.38648e-05
3 *1681:A2 0.000141626
4 *1661:X 0.000159567
5 *372:14 0.000402976
6 *372:12 0.000479967
7 *1662:C *757:39 4.82919e-05
8 *1681:A2 *1673:A_N 0
9 *1681:A2 *1680:A 2.61115e-05
10 *1681:A2 *1681:A1 0.000117832
11 *1681:A2 *1681:B1 8.7152e-06
12 *1681:A2 *373:12 7.06342e-06
13 *1683:A *773:18 7.87003e-05
14 *372:12 *1661:A 5.92191e-05
15 *372:12 *696:80 1.87038e-05
16 *372:12 *770:19 1.71013e-05
17 *372:14 *1657:B 1.26548e-05
18 *372:14 *1680:A 5.3673e-05
19 *372:14 *1682:B1 0.000298449
20 *372:14 *1683:B 0
21 *372:14 *696:61 0
22 *372:14 *770:19 2.4997e-05
23 *372:14 *771:44 0
24 *1681:C1 *1681:A2 5.73362e-05
25 *1681:C1 *372:14 3.86607e-05
*RES
1 *1661:X *372:12 6.135 
2 *372:12 *372:14 5.46 
3 *372:14 *1681:A2 6.51 
4 *372:14 *1662:C 4.05 
5 *372:12 *1683:A 5.43 
*END

*D_NET *373 0.00256518
*CONN
*I *1674:A I *D sky130_fd_sc_hd__nor2_2
*I *1663:B I *D sky130_fd_sc_hd__and2_2
*I *1672:B I *D sky130_fd_sc_hd__xor2_2
*I *1662:X O *D sky130_fd_sc_hd__and3_2
*CAP
1 *1674:A 3.20367e-05
2 *1663:B 2.7605e-05
3 *1672:B 7.96325e-05
4 *1662:X 6.24004e-05
5 *373:28 0.000527368
6 *373:12 0.000514568
7 *1663:B *1663:A 8.6076e-05
8 *1663:B *374:6 4.40028e-05
9 *1663:B *696:20 0.000160319
10 *1672:B *1672:A 0.000120186
11 *1672:B *758:14 0.000143266
12 *1672:B *758:46 4.21314e-05
13 *1674:A *1674:B 5.39112e-05
14 *373:12 *1681:A1 1.40475e-05
15 *373:12 *1964:A 2.03987e-05
16 *373:28 *1674:B 0.000356096
17 *373:28 *1681:A1 1.62134e-05
18 *373:28 *1681:B1 7.01359e-05
19 *1681:A2 *373:12 7.06342e-06
20 *1681:C1 *373:12 9.21064e-05
21 *1681:C1 *373:28 2.03881e-05
22 *2075:D *1674:A 4.88572e-05
23 *2075:D *373:12 2.63663e-05
*RES
1 *1662:X *373:12 7.3325 
2 *373:12 *373:28 9.9875 
3 *373:28 *1672:B 4.4 
4 *373:28 *1663:B 5.085 
5 *373:12 *1674:A 2.5075 
*END

*D_NET *374 0.00430403
*CONN
*I *1669:A2 I *D sky130_fd_sc_hd__a21oi_2
*I *1664:C I *D sky130_fd_sc_hd__and3_2
*I *1671:B I *D sky130_fd_sc_hd__xor2_2
*I *1663:X O *D sky130_fd_sc_hd__and2_2
*CAP
1 *1669:A2 9.97023e-05
2 *1664:C 0.000383206
3 *1671:B 0.000120342
4 *1663:X 0.000223081
5 *374:19 0.000560766
6 *374:6 0.000421281
7 *1664:C *1664:A 0.00015428
8 *1664:C *1664:B 5.062e-06
9 *1664:C *1965:A 0
10 *1664:C *2077:CLK 0.000114483
11 *1664:C *758:22 2.92496e-05
12 *1664:C *759:6 1.54878e-05
13 *1664:C *759:10 4.40643e-05
14 *1664:C *759:21 5.00356e-05
15 *1669:A2 *2077:CLK 2.30639e-05
16 *1669:A2 *541:65 3.14077e-05
17 *1669:A2 *758:22 0.000198217
18 *1671:B *695:18 0
19 *374:6 *1663:A 0.000121811
20 *374:6 *2201:A 0.000149438
21 *374:6 *695:18 4.82919e-05
22 *374:6 *696:20 0.000133361
23 *374:6 *758:22 0.000461442
24 *374:19 *2165:A 0.000387896
25 *374:19 *2261:A 9.27255e-06
26 *374:19 *696:20 1.83847e-05
27 *374:19 *758:22 0.000451959
28 *1663:B *374:6 4.40028e-05
29 *2076:RESET_B *1671:B 0
30 *2077:D *1671:B 4.43871e-06
31 *2078:RESET_B *1664:C 0
32 *2079:RESET_B *1664:C 0
*RES
1 *1663:X *374:6 8.26 
2 *374:6 *1671:B 5.89 
3 *374:6 *374:19 6.245 
4 *374:19 *1664:C 11.565 
5 *374:19 *1669:A2 6 
*END

*D_NET *375 0.00136067
*CONN
*I *1665:B I *D sky130_fd_sc_hd__nand2_2
*I *1667:B I *D sky130_fd_sc_hd__or2_2
*I *1670:A I *D sky130_fd_sc_hd__nor2_2
*I *1664:X O *D sky130_fd_sc_hd__and3_2
*CAP
1 *1665:B 0.000121051
2 *1667:B 0
3 *1670:A 0
4 *1664:X 5.31567e-05
5 *375:17 0.000298451
6 *375:6 0.000230556
7 *1665:B *1667:A 0.00012657
8 *1665:B *1668:B 5.72004e-05
9 *1665:B *2161:A 0
10 *1665:B *2166:A 8.65905e-05
11 *1665:B *700:10 1.52184e-05
12 *1665:B *700:21 0.000114846
13 *375:17 *1667:A 3.50581e-05
14 *375:17 *1668:B 2.30292e-05
15 *2079:D *375:17 0.000198945
*RES
1 *1664:X *375:6 2.395 
2 *375:6 *1670:A 1.6 
3 *375:6 *375:17 3.84 
4 *375:17 *1667:B 1.6 
5 *375:17 *1665:B 9.395 
*END

*D_NET *376 0.00271614
*CONN
*I *1666:B I *D sky130_fd_sc_hd__xnor2_2
*I *1668:A I *D sky130_fd_sc_hd__and2_2
*I *1665:Y O *D sky130_fd_sc_hd__nand2_2
*CAP
1 *1666:B 0
2 *1668:A 0.00045257
3 *1665:Y 0.000142478
4 *376:12 0.000595048
5 *1668:A *1666:A 9.50342e-06
6 *1668:A *1668:B 0.000787826
7 *1668:A *2130:A 3.05183e-05
8 *1668:A *542:10 4.66108e-05
9 *1668:A *700:21 7.25036e-05
10 *1668:A *700:46 0.000190929
11 *376:12 *2081:CLK 0.000197269
12 *376:12 *700:21 7.63125e-05
13 *376:12 *761:14 5.42473e-05
14 *2080:D *1668:A 6.03224e-05
*RES
1 *1665:Y *376:12 9.065 
2 *376:12 *1668:A 18.635 
3 *376:12 *1666:B 1.6 
*END

*D_NET *377 0.00324242
*CONN
*I *1668:B I *D sky130_fd_sc_hd__and2_2
*I *1667:X O *D sky130_fd_sc_hd__or2_2
*CAP
1 *1668:B 0.000889701
2 *1667:X 0.000889701
3 *1668:B *1666:A 0.000120186
4 *1668:B *1670:B 0
5 *1668:B *2079:CLK 0
6 *1668:B *541:12 0
7 *1668:B *542:10 4.9968e-05
8 *1668:B *700:21 0
9 *1665:B *1668:B 5.72004e-05
10 *1668:A *1668:B 0.000787826
11 *2072:D *1668:B 8.4918e-05
12 *2079:D *1668:B 0.000202541
13 *2080:D *1668:B 0.000137349
14 *375:17 *1668:B 2.30292e-05
*RES
1 *1667:X *1668:B 25.665 
*END

*D_NET *378 0.000281495
*CONN
*I *2187:A I *D sky130_fd_sc_hd__dlygate4sd3_1
*I *1669:Y O *D sky130_fd_sc_hd__a21oi_2
*CAP
1 *2187:A 6.97086e-05
2 *1669:Y 6.97086e-05
3 *2187:A *1669:B1 0.000136766
4 *2187:A *1678:C 0
5 *2187:A *383:12 5.31158e-06
*RES
1 *1669:Y *2187:A 8.835 
*END

*D_NET *379 0.00143178
*CONN
*I *1674:B I *D sky130_fd_sc_hd__nor2_2
*I *1673:X O *D sky130_fd_sc_hd__and2b_2
*CAP
1 *1674:B 0.000477884
2 *1673:X 0.000477884
3 *1674:B *1681:B1 1.15196e-05
4 *1674:B *1964:A 5.93823e-06
5 *1674:B *2115:CLK 4.85428e-05
6 *1674:B *385:10 0
7 *1674:A *1674:B 5.39112e-05
8 *2075:D *1674:B 0
9 *2076:D *1674:B 0
10 *373:28 *1674:B 0.000356096
*RES
1 *1673:X *1674:B 15.285 
*END

*D_NET *380 0.000931771
*CONN
*I *1676:D I *D sky130_fd_sc_hd__or4_2
*I *1675:X O *D sky130_fd_sc_hd__or4b_2
*CAP
1 *1676:D 0.000182941
2 *1675:X 0.000182941
3 *1676:D *1675:A 1.7902e-05
4 *1676:D *1675:B 0.000113512
5 *1676:D *2075:CLK 0
6 *1676:D *769:35 0.000133205
7 *1676:D *771:16 0.000270347
8 *1676:C *1676:D 3.09233e-05
*RES
1 *1675:X *1676:D 11.325 
*END

*D_NET *381 0.00110795
*CONN
*I *1679:A I *D sky130_fd_sc_hd__nor3_2
*I *1676:X O *D sky130_fd_sc_hd__or4_2
*CAP
1 *1679:A 0.000318679
2 *1676:X 0.000318679
3 *1679:A *1676:A 0.000213701
4 *1679:A *1680:B 9.32756e-05
5 *1679:A *1840:A 0
6 *1679:A *2075:CLK 8.73389e-06
7 *1679:A *758:22 0.000154885
*RES
1 *1676:X *1679:A 12.795 
*END

*D_NET *382 0.00142026
*CONN
*I *1679:B I *D sky130_fd_sc_hd__nor3_2
*I *1677:X O *D sky130_fd_sc_hd__or4_2
*CAP
1 *1679:B 0.00036909
2 *1677:X 0.00036909
3 *1679:B *1675:A 0
4 *1679:B *1838:D_N 0.000134778
5 *1679:B *1840:C 0.00012578
6 *1679:B *757:14 0.000199841
7 *1679:B *757:24 3.47837e-05
8 *1679:B *768:12 0.000186897
9 *1679:B *769:35 0
*RES
1 *1677:X *1679:B 15.285 
*END

*D_NET *383 0.00231718
*CONN
*I *1840:A I *D sky130_fd_sc_hd__or4_2
*I *1679:C I *D sky130_fd_sc_hd__nor3_2
*I *1678:X O *D sky130_fd_sc_hd__or4_2
*CAP
1 *1840:A 0.000703223
2 *1679:C 0
3 *1678:X 0.000307809
4 *383:12 0.00101103
5 *1840:A *1676:A 0
6 *1840:A *1680:B 0
7 *1840:A *1687:A 0
8 *1840:A *1693:B 7.55313e-05
9 *1840:A *1840:C 0
10 *1840:A *389:14 0
11 *1840:A *535:245 5.18495e-05
12 *1840:A *535:259 3.63701e-06
13 *1840:A *542:10 0
14 *1840:A *767:25 0
15 *383:12 *1669:B1 1.38207e-05
16 *383:12 *1678:A 8.64599e-05
17 *383:12 *1678:B 7.5687e-06
18 *383:12 *1678:C 2.8919e-05
19 *383:12 *535:245 2.2016e-05
20 *1648:B *1840:A 0
21 *1679:A *1840:A 0
22 *2072:D *1840:A 0
23 *2187:A *383:12 5.31158e-06
*RES
1 *1678:X *383:12 8.445 
2 *383:12 *1679:C 3.6 
3 *383:12 *1840:A 13.695 
*END

*D_NET *384 0.00111544
*CONN
*I *1680:B I *D sky130_fd_sc_hd__nand2_2
*I *1679:Y O *D sky130_fd_sc_hd__nor3_2
*CAP
1 *1680:B 0.000361647
2 *1679:Y 0.000361647
3 *1680:B *1680:A 3.21081e-06
4 *1680:B *1838:A 0.000118081
5 *1680:B *1838:C_N 4.66108e-05
6 *1680:B *1838:D_N 0.000124895
7 *1680:B *757:24 6.07575e-06
8 *1679:A *1680:B 9.32756e-05
9 *1840:A *1680:B 0
*RES
1 *1679:Y *1680:B 12.93 
*END

*D_NET *385 0.00643666
*CONN
*I *1701:A I *D sky130_fd_sc_hd__and2_2
*I *1698:A I *D sky130_fd_sc_hd__and3_2
*I *1705:A I *D sky130_fd_sc_hd__and3_2
*I *1681:B1 I *D sky130_fd_sc_hd__o211a_2
*I *1680:Y O *D sky130_fd_sc_hd__nand2_2
*CAP
1 *1701:A 0
2 *1698:A 9.92759e-05
3 *1705:A 0.00043824
4 *1681:B1 0.00046933
5 *1680:Y 5.5984e-05
6 *385:48 0.000297507
7 *385:29 0.00108347
8 *385:10 0.000972311
9 *1681:B1 *1673:A_N 0
10 *1681:B1 *2075:CLK 7.15381e-05
11 *1681:B1 *771:8 0.000130192
12 *1698:A *1690:A 4.66108e-05
13 *1698:A *1698:B 6.54361e-06
14 *1698:A *1701:B 0.000207289
15 *1698:A *764:14 4.77807e-05
16 *1698:A *764:25 0.000185755
17 *1705:A *1702:A1 0.000110458
18 *1705:A *1702:A2 5.06989e-05
19 *1705:A *1702:B1 9.21153e-05
20 *1705:A *387:14 0.000120655
21 *385:10 *1680:A 8.73389e-06
22 *385:10 *1964:A 5.83121e-06
23 *385:29 *1647:A 0
24 *385:29 *1837:A 8.98913e-05
25 *385:29 *2075:CLK 0.00026661
26 *385:29 *756:12 6.67023e-05
27 *385:29 *756:18 0.000213646
28 *385:29 *763:12 4.87819e-05
29 *385:29 *763:18 0.000135126
30 *385:29 *771:44 1.73877e-05
31 *385:48 *1699:B 7.00889e-06
32 *385:48 *1701:B 4.82863e-05
33 *385:48 *1702:A1 0.000123225
34 *385:48 *387:14 0.000152858
35 *385:48 *756:10 7.21296e-06
36 *385:48 *756:12 1.7396e-05
37 *385:48 *763:12 3.4222e-05
38 *1661:B *385:29 0
39 *1673:B *1681:B1 6.98643e-05
40 *1673:B *385:29 0.000341861
41 *1674:B *1681:B1 1.15196e-05
42 *1674:B *385:10 0
43 *1676:C *385:29 0
44 *1681:A2 *1681:B1 8.7152e-06
45 *2068:D *385:48 5.30673e-05
46 *2075:RESET_B *1681:B1 0.000152824
47 *373:28 *1681:B1 7.01359e-05
*RES
1 *1680:Y *385:10 4.41 
2 *385:10 *1681:B1 14.44 
3 *385:10 *385:29 12.345 
4 *385:29 *1705:A 10.035 
5 *385:29 *385:48 6.77 
6 *385:48 *1698:A 8.795 
7 *385:48 *1701:A 1.6 
*END

*D_NET *386 0.000768069
*CONN
*I *1683:B I *D sky130_fd_sc_hd__nor2_2
*I *1682:Y O *D sky130_fd_sc_hd__a21oi_2
*CAP
1 *1683:B 0.000136123
2 *1682:Y 0.000136123
3 *1683:B *674:36 2.93678e-05
4 *1683:B *696:61 0.000323188
5 *2074:RESET_B *1683:B 0.000143266
6 *372:14 *1683:B 0
*RES
1 *1682:Y *1683:B 11.325 
*END

*D_NET *387 0.00439378
*CONN
*I *1703:A I *D sky130_fd_sc_hd__nor2_2
*I *1699:B I *D sky130_fd_sc_hd__nor2_2
*I *1685:C I *D sky130_fd_sc_hd__and3_2
*I *1684:X O *D sky130_fd_sc_hd__and3_2
*CAP
1 *1703:A 0.000266918
2 *1699:B 9.98874e-05
3 *1685:C 0.000359159
4 *1684:X 0.000146948
5 *387:14 0.000688606
6 *387:10 0.000643426
7 *1685:C *1685:A 8.8266e-05
8 *1685:C *756:12 0
9 *1685:C *764:27 7.23602e-05
10 *1685:C *764:53 3.35323e-05
11 *1703:A *1702:B1 0.000340846
12 *1703:A *1956:A 0.000186415
13 *1703:A *696:80 8.52883e-05
14 *1703:A *763:10 0.000103464
15 *1703:A *763:12 0.00024836
16 *387:10 *1684:A 4.82863e-05
17 *387:10 *1684:B 1.47347e-05
18 *387:10 *696:80 0
19 *387:10 *763:12 0.00010556
20 *387:10 *763:18 2.73058e-05
21 *387:14 *1701:B 4.99619e-05
22 *387:14 *1702:A1 0.000233004
23 *1661:B *387:10 0.000114852
24 *1684:C *387:10 7.27003e-05
25 *1705:A *387:14 0.000120655
26 *2066:RESET_B *1703:A 8.33711e-05
27 *385:48 *1699:B 7.00889e-06
28 *385:48 *387:14 0.000152858
*RES
1 *1684:X *387:10 7.41 
2 *387:10 *387:14 6.935 
3 *387:14 *1685:C 10.385 
4 *387:14 *1699:B 3.1 
5 *387:10 *1703:A 11.01 
*END

*D_NET *388 0.00140345
*CONN
*I *1695:B I *D sky130_fd_sc_hd__nor2_2
*I *1686:B I *D sky130_fd_sc_hd__and2_2
*I *1685:X O *D sky130_fd_sc_hd__and3_2
*CAP
1 *1695:B 0.000160551
2 *1686:B 8.53717e-05
3 *1685:X 0.000196498
4 *388:6 0.00044242
5 *1686:B *1696:A 7.39277e-05
6 *1686:B *1696:B 5.07362e-05
7 *1686:B *542:43 0.000140912
8 *1686:B *542:60 6.55336e-05
9 *1686:B *542:73 4.2021e-05
10 *1686:B *765:16 0
11 *1686:B *767:25 0
12 *1695:B *1959:A 0
13 *1695:B *542:73 6.28765e-05
14 *1695:B *766:14 8.53113e-06
15 *388:6 *1696:A 2.75145e-05
16 *2070:D *1695:B 4.29107e-05
17 *2070:D *388:6 3.64998e-06
*RES
1 *1685:X *388:6 3.775 
2 *388:6 *1686:B 8.51 
3 *388:6 *1695:B 8.12 
*END

*D_NET *389 0.0024805
*CONN
*I *1696:A I *D sky130_fd_sc_hd__nor2_2
*I *1694:B I *D sky130_fd_sc_hd__xor2_2
*I *1688:C I *D sky130_fd_sc_hd__and3_2
*I *1687:B I *D sky130_fd_sc_hd__nand2_2
*I *1686:X O *D sky130_fd_sc_hd__and2_2
*CAP
1 *1696:A 9.74548e-05
2 *1694:B 0
3 *1688:C 0.000287895
4 *1687:B 8.47482e-05
5 *1686:X 0.000209814
6 *389:14 0.000489106
7 *389:10 0.000228822
8 *1687:B *1648:A 7.35729e-05
9 *1688:C *1648:A 0.00011577
10 *1688:C *2205:A 0.000349587
11 *1696:A *1696:B 7.9642e-06
12 *1696:A *765:16 0
13 *389:10 *542:43 0.000118513
14 *389:10 *766:18 8.65905e-05
15 *389:10 *767:25 0
16 *389:14 *1687:A 0
17 *389:14 *1693:B 0
18 *389:14 *542:43 0.000229217
19 *389:14 *767:25 0
20 *1686:B *1696:A 7.39277e-05
21 *1840:A *389:14 0
22 *388:6 *1696:A 2.75145e-05
*RES
1 *1686:X *389:10 5.775 
2 *389:10 *389:14 4.655 
3 *389:14 *1687:B 3.1 
4 *389:14 *1688:C 6.88 
5 *389:10 *1694:B 2 
6 *1686:X *1696:A 9.285 
*END

*D_NET *390 0.000456626
*CONN
*I *1693:B I *D sky130_fd_sc_hd__xnor2_2
*I *1687:Y O *D sky130_fd_sc_hd__nand2_2
*CAP
1 *1693:B 0.000128097
2 *1687:Y 0.000128097
3 *1693:B *1693:A 0
4 *1693:B *542:14 0.0001249
5 *1693:B *542:43 0
6 *1840:A *1693:B 7.55313e-05
7 *389:14 *1693:B 0
*RES
1 *1687:Y *1693:B 9.975 
*END

*D_NET *391 0.000273082
*CONN
*I *1692:B I *D sky130_fd_sc_hd__xor2_2
*I *1688:X O *D sky130_fd_sc_hd__and3_2
*CAP
1 *1692:B 6.49078e-05
2 *1688:X 6.49078e-05
3 *1692:B *699:58 0.000143266
4 *1692:B *700:59 0
*RES
1 *1688:X *1692:B 7.235 
*END

*D_NET *392 0.000715529
*CONN
*I *1705:B I *D sky130_fd_sc_hd__and3_2
*I *1689:Y O *D sky130_fd_sc_hd__nand2_2
*CAP
1 *1705:B 0.000158828
2 *1689:Y 0.000158828
3 *1705:B *1702:A2 6.38722e-05
4 *1705:B *2067:CLK 3.02745e-05
5 *1705:B *540:79 0.00011852
6 *1705:B *773:18 0.000138596
7 *2066:D *1705:B 4.66108e-05
*RES
1 *1689:Y *1705:B 10.32 
*END

*D_NET *393 0.00120818
*CONN
*I *1700:A I *D sky130_fd_sc_hd__nor2_2
*I *1697:B I *D sky130_fd_sc_hd__or2_2
*I *1691:B I *D sky130_fd_sc_hd__nand2_2
*I *1690:X O *D sky130_fd_sc_hd__and4_2
*CAP
1 *1700:A 0.000110418
2 *1697:B 0
3 *1691:B 0
4 *1690:X 0.000252646
5 *393:17 0.000157808
6 *393:10 0.000300036
7 *1700:A *1691:A 4.42148e-05
8 *1700:A *1697:A 5.19006e-06
9 *1700:A *1701:B 0.000122821
10 *1700:A *765:60 9.22206e-05
11 *393:17 *1691:A 0.000122821
*RES
1 *1690:X *393:10 9.275 
2 *393:10 *1691:B 1.6 
3 *393:10 *393:17 1.14 
4 *393:17 *1697:B 1.6 
5 *393:17 *1700:A 4.495 
*END

*D_NET *394 0.0015673
*CONN
*I *1698:B I *D sky130_fd_sc_hd__and3_2
*I *1691:Y O *D sky130_fd_sc_hd__nand2_2
*CAP
1 *1698:B 0.000461357
2 *1691:Y 0.000461357
3 *1698:B *1691:A 0.000115351
4 *1698:B *1698:C 0.000364512
5 *1698:B *1700:B 6.15491e-05
6 *1698:B *764:14 1.83847e-05
7 *1698:B *764:25 4.36954e-05
8 *1698:B *765:60 3.45492e-05
9 *1698:A *1698:B 6.54361e-06
*RES
1 *1691:Y *1698:B 15.39 
*END

*D_NET *395 0.000535115
*CONN
*I *1696:B I *D sky130_fd_sc_hd__nor2_2
*I *1695:Y O *D sky130_fd_sc_hd__nor2_2
*CAP
1 *1696:B 0.000222038
2 *1695:Y 0.000222038
3 *1696:B *542:73 3.23391e-05
4 *1696:B *765:10 0
5 *1686:B *1696:B 5.07362e-05
6 *1696:A *1696:B 7.9642e-06
*RES
1 *1695:Y *1696:B 10.065 
*END

*D_NET *396 0.00101864
*CONN
*I *1698:C I *D sky130_fd_sc_hd__and3_2
*I *1697:X O *D sky130_fd_sc_hd__or2_2
*CAP
1 *1698:C 0.000115028
2 *1697:X 0.000115028
3 *1698:C *1700:B 0.000263731
4 *1698:C *765:60 0.000160338
5 *1698:B *1698:C 0.000364512
*RES
1 *1697:X *1698:C 11.85 
*END

*D_NET *397 0.00101556
*CONN
*I *1700:B I *D sky130_fd_sc_hd__nor2_2
*I *1699:Y O *D sky130_fd_sc_hd__nor2_2
*CAP
1 *1700:B 0.000255601
2 *1699:Y 0.000255601
3 *1700:B *764:14 0.000179077
4 *1700:B *764:25 0
5 *1700:B *765:10 0
6 *1700:B *765:60 0
7 *1698:B *1700:B 6.15491e-05
8 *1698:C *1700:B 0.000263731
*RES
1 *1699:Y *1700:B 13.425 
*END

*D_NET *398 0.00162646
*CONN
*I *1701:B I *D sky130_fd_sc_hd__and2_2
*I *1700:Y O *D sky130_fd_sc_hd__nor2_2
*CAP
1 *1701:B 0.000451927
2 *1700:Y 0.000451927
3 *1701:B *756:10 0
4 *1701:B *764:25 6.34101e-06
5 *1701:B *764:27 4.43871e-06
6 *1701:B *765:60 1.54665e-05
7 *1698:A *1701:B 0.000207289
8 *1700:A *1701:B 0.000122821
9 *2068:D *1701:B 0.000268002
10 *385:48 *1701:B 4.82863e-05
11 *387:14 *1701:B 4.99619e-05
*RES
1 *1700:Y *1701:B 16.125 
*END

*D_NET *399 0.000879589
*CONN
*I *1703:B I *D sky130_fd_sc_hd__nor2_2
*I *1702:Y O *D sky130_fd_sc_hd__a21oi_2
*CAP
1 *1703:B 0.000214433
2 *1702:Y 0.000214433
3 *1703:B *1690:D 9.48444e-05
4 *1703:B *1702:A1 8.51862e-05
5 *1703:B *696:80 0.000178837
6 *2066:D *1703:B 0
7 *2066:RESET_B *1703:B 9.18556e-05
*RES
1 *1702:Y *1703:B 12.12 
*END

*D_NET *400 0.000954738
*CONN
*I *1705:C I *D sky130_fd_sc_hd__and3_2
*I *1704:X O *D sky130_fd_sc_hd__or2_2
*CAP
1 *1705:C 0.000166089
2 *1704:X 0.000166089
3 *1705:C *1702:A2 5.05521e-05
4 *1705:C *1704:A 3.32593e-05
5 *1705:C *696:80 0
6 *1705:C *773:18 0.000354918
7 *2066:D *1705:C 0.00018383
*RES
1 *1704:X *1705:C 12.18 
*END

*D_NET *401 0.00227513
*CONN
*I *1707:B I *D sky130_fd_sc_hd__nor2_2
*I *1731:B1 I *D sky130_fd_sc_hd__a21oi_2
*I *1706:X O *D sky130_fd_sc_hd__and4b_2
*CAP
1 *1707:B 0.000251129
2 *1731:B1 0.000266148
3 *1706:X 0
4 *401:4 0.000517277
5 *1707:B *1606:A 3.50152e-06
6 *1707:B *1706:D 1.79483e-05
7 *1707:B *1707:A 4.63015e-05
8 *1707:B *1728:B1 6.88421e-05
9 *1707:B *1786:A1 9.03138e-05
10 *1707:B *402:8 3.04704e-05
11 *1707:B *705:57 4.27523e-05
12 *1707:B *733:20 0.000128796
13 *1731:B1 *1732:A1 9.24079e-05
14 *1731:B1 *724:16 0.000240561
15 *1706:B *1707:B 1.27434e-05
16 *1706:B *1731:B1 4.41506e-05
17 *322:14 *1707:B 1.08758e-05
18 *329:12 *1731:B1 0.000410914
*RES
1 *1706:X *401:4 1.6 
2 *401:4 *1731:B1 12.035 
3 *401:4 *1707:B 10.715 
*END

*D_NET *402 0.00404405
*CONN
*I *1713:A2 I *D sky130_fd_sc_hd__o31ai_2
*I *1711:B1_N I *D sky130_fd_sc_hd__o21ba_2
*I *1710:A2 I *D sky130_fd_sc_hd__o21ba_2
*I *1707:Y O *D sky130_fd_sc_hd__nor2_2
*CAP
1 *1713:A2 7.14018e-05
2 *1711:B1_N 0.000135797
3 *1710:A2 8.16145e-05
4 *1707:Y 0.00036174
5 *402:10 0.000244815
6 *402:8 0.000460546
7 *1710:A2 *1711:A1 4.82919e-05
8 *1710:A2 *666:16 0.000157274
9 *1710:A2 *679:23 8.53113e-06
10 *1710:A2 *679:48 0.000125714
11 *1710:A2 *705:22 8.57024e-05
12 *1711:B1_N *1711:A2 4.82919e-05
13 *1711:B1_N *1853:A 0.000268739
14 *1711:B1_N *1858:A1 4.66108e-05
15 *1711:B1_N *1858:B1 0.000126584
16 *1711:B1_N *1860:B 9.80032e-06
17 *1713:A2 *1713:B1 2.49909e-05
18 *1713:A2 *404:16 2.49909e-05
19 *1713:A2 *666:10 0.000147397
20 *1713:A2 *679:48 0.000155928
21 *402:8 *1606:A 0.000197826
22 *402:8 *1707:A 0.000307411
23 *402:8 *1787:B 2.8185e-05
24 *402:8 *1853:A 4.64565e-05
25 *402:8 *1853:B 6.25733e-05
26 *402:8 *1858:A1 4.41506e-05
27 *402:8 *1858:A2 8.8266e-05
28 *402:8 *483:18 0.000232105
29 *402:8 *705:57 1.17309e-05
30 *402:10 *666:10 5.13684e-05
31 *402:10 *666:16 1.93416e-05
32 *402:10 *679:48 7.071e-05
33 *1707:B *402:8 3.04704e-05
34 *2020:D *1710:A2 0.000158066
35 *2063:RESET_B *402:8 4.99619e-05
36 *322:14 *402:8 1.06688e-05
*RES
1 *1707:Y *402:8 12.33 
2 *402:8 *402:10 0.87 
3 *402:10 *1710:A2 6.72 
4 *402:10 *1711:B1_N 7.17 
5 *402:8 *1713:A2 5.94 
*END

*D_NET *403 0.00193504
*CONN
*I *1709:B I *D sky130_fd_sc_hd__nor2_2
*I *1728:B1 I *D sky130_fd_sc_hd__a21oi_2
*I *1708:X O *D sky130_fd_sc_hd__and4b_2
*CAP
1 *1709:B 8.66548e-05
2 *1728:B1 0.000482554
3 *1708:X 0.000569208
4 *1709:B *1709:A 3.38272e-05
5 *1728:B1 *1708:D 4.56204e-05
6 *1728:B1 *1709:A 2.14569e-05
7 *1728:B1 *1729:A2 0.000133196
8 *1728:B1 *1732:A1 0.000195271
9 *1728:B1 *2057:CLK 9.65362e-05
10 *1728:B1 *724:16 8.70322e-05
11 *1706:B *1728:B1 0.000114839
12 *1707:B *1728:B1 6.88421e-05
*RES
1 *1708:X *1728:B1 15.99 
2 *1708:X *1709:B 4.7 
*END

*D_NET *404 0.00381831
*CONN
*I *1713:A3 I *D sky130_fd_sc_hd__o31ai_2
*I *1711:A2 I *D sky130_fd_sc_hd__o21ba_2
*I *1710:B1_N I *D sky130_fd_sc_hd__o21ba_2
*I *1709:Y O *D sky130_fd_sc_hd__nor2_2
*CAP
1 *1713:A3 0
2 *1711:A2 9.71884e-06
3 *1710:B1_N 0.000103816
4 *1709:Y 0.000775337
5 *404:22 0.000262424
6 *404:16 0.000924226
7 *1710:B1_N *1711:A1 5.27651e-05
8 *1710:B1_N *1853:A 3.82741e-05
9 *1710:B1_N *447:26 3.63701e-06
10 *1710:B1_N *666:16 4.66826e-05
11 *1711:A2 *1858:B1 4.82919e-05
12 *404:16 *1713:A1 5.05521e-05
13 *404:16 *1713:B1 8.43394e-05
14 *404:16 *1853:B 0.000202484
15 *404:16 *413:31 0.000148893
16 *404:16 *413:41 0.00041828
17 *404:16 *454:14 2.96426e-05
18 *404:22 *1711:A1 2.0851e-06
19 *404:22 *1713:B1 6.71882e-05
20 *404:22 *1853:B 1.61831e-05
21 *404:22 *447:26 1.86953e-05
22 *404:22 *483:61 0.000136877
23 *404:22 *492:43 7.66908e-05
24 *404:22 *666:10 0
25 *1711:B1_N *1711:A2 4.82919e-05
26 *1712:B1 *404:16 2.99731e-05
27 *1713:A2 *404:16 2.49909e-05
28 *2020:D *1710:B1_N 8.23457e-05
29 *2064:D *1710:B1_N 2.94708e-05
30 *2065:D *1710:B1_N 5.16418e-05
31 *322:14 *404:16 3.45117e-05
*RES
1 *1709:Y *404:16 19.595 
2 *404:16 *404:22 5.54 
3 *404:22 *1710:B1_N 6.285 
4 *404:22 *1711:A2 4.05 
5 *404:16 *1713:A3 1.6 
*END

*D_NET *405 0.00252748
*CONN
*I *1713:B1 I *D sky130_fd_sc_hd__o31ai_2
*I *1712:X O *D sky130_fd_sc_hd__a31o_2
*CAP
1 *1713:B1 0.000875145
2 *1712:X 0.000875145
3 *1713:B1 *1713:A1 5.05521e-05
4 *1713:B1 *413:31 3.51072e-05
5 *1713:B1 *413:41 4.02708e-05
6 *1713:B1 *454:14 0.000419392
7 *1713:B1 *492:43 8.73389e-06
8 *1713:A2 *1713:B1 2.49909e-05
9 *2089:D *1713:B1 4.66108e-05
10 *404:16 *1713:B1 8.43394e-05
11 *404:22 *1713:B1 6.71882e-05
*RES
1 *1712:X *1713:B1 14.36 
*END

*D_NET *406 0.000706619
*CONN
*I *1795:A2 I *D sky130_fd_sc_hd__a21bo_2
*I *1714:Y O *D sky130_fd_sc_hd__nand2b_2
*CAP
1 *1795:A2 0.000160812
2 *1714:Y 0.000160812
3 *1795:A2 *1714:B 6.37751e-05
4 *1795:A2 *1985:A 0.000184318
5 *2096:RESET_B *1795:A2 0.000136901
*RES
1 *1714:Y *1795:A2 11.925 
*END

*D_NET *407 0.0032252
*CONN
*I *1794:B1 I *D sky130_fd_sc_hd__a211o_2
*I *1718:B1 I *D sky130_fd_sc_hd__a21o_2
*I *1716:A I *D sky130_fd_sc_hd__inv_2
*I *1715:X O *D sky130_fd_sc_hd__and3b_2
*CAP
1 *1794:B1 0.000300646
2 *1718:B1 1.17533e-05
3 *1716:A 0.000211606
4 *1715:X 0.000336117
5 *407:25 0.000391347
6 *407:12 0.000626671
7 *1716:A *537:22 0.000119279
8 *1716:A *537:28 1.61831e-05
9 *1718:B1 *1951:A 2.75145e-05
10 *1718:B1 *2092:CLK 4.82863e-05
11 *1794:B1 *1717:C 7.63125e-05
12 *1794:B1 *1718:A1 0.000162325
13 *1794:B1 *1741:B1 7.63204e-05
14 *1794:B1 *1794:A2 0.000131854
15 *1794:B1 *2152:A 1.0183e-05
16 *1794:B1 *2162:A 0
17 *1794:B1 *537:10 4.62396e-05
18 *1794:B1 *537:14 7.04108e-05
19 *1794:B1 *537:22 8.08153e-06
20 *1794:B1 *556:88 0
21 *1794:B1 *721:36 0.000125541
22 *407:12 *1714:B 9.12494e-06
23 *407:12 *1740:B2 0
24 *407:12 *2162:A 0
25 *407:12 *421:10 0
26 *407:12 *706:12 0
27 *407:12 *722:10 0.000126927
28 *407:12 *722:12 0.000104891
29 *407:25 *1718:A1 8.53113e-06
30 *407:25 *2162:A 0
31 *407:25 *537:22 9.3062e-06
32 *2054:RESET_B *407:12 0.000109532
33 *2062:D *407:12 1.70935e-05
34 *2062:D *407:25 4.31189e-05
35 *2062:RESET_B *407:12 0
*RES
1 *1715:X *407:12 10.38 
2 *407:12 *1716:A 6.39 
3 *407:12 *407:25 1.38 
4 *407:25 *1718:B1 4.05 
5 *407:25 *1794:B1 11.865 
*END

*D_NET *408 0.00066669
*CONN
*I *1740:B2 I *D sky130_fd_sc_hd__o22a_2
*I *1716:Y O *D sky130_fd_sc_hd__inv_2
*CAP
1 *1740:B2 0.000226233
2 *1716:Y 0.000226233
3 *1740:B2 *1795:B1_N 0.00010163
4 *1740:B2 *421:10 6.20408e-05
5 *1740:B2 *537:28 5.05521e-05
6 *407:12 *1740:B2 0
*RES
1 *1716:Y *1740:B2 11.415 
*END

*D_NET *409 0.000287119
*CONN
*I *1718:A2 I *D sky130_fd_sc_hd__a21o_2
*I *1717:Y O *D sky130_fd_sc_hd__nand3_2
*CAP
1 *1718:A2 7.31035e-05
2 *1717:Y 7.31035e-05
3 *1718:A2 *1718:A1 0.000140912
4 *1718:A2 *2162:A 0
*RES
1 *1717:Y *1718:A2 8.835 
*END

*D_NET *410 0.0013739
*CONN
*I *1720:A2 I *D sky130_fd_sc_hd__a21boi_2
*I *1790:A I *D sky130_fd_sc_hd__or3b_2
*I *1719:X O *D sky130_fd_sc_hd__and3_2
*CAP
1 *1720:A2 8.01273e-05
2 *1790:A 0.000197577
3 *1719:X 0.000182584
4 *410:8 0.000460288
5 *1720:A2 *1610:A 2.01934e-05
6 *1720:A2 *2100:CLK 4.77807e-05
7 *1790:A *1610:A 4.47202e-05
8 *1790:A *415:23 6.72833e-06
9 *1790:A *544:40 2.39751e-05
10 *410:8 *544:34 4.4073e-05
11 *410:8 *544:36 6.28783e-05
12 *410:8 *544:40 3.75882e-06
13 *2087:D *1790:A 7.70158e-05
14 *326:6 *1720:A2 0.000122202
*RES
1 *1719:X *410:8 6.765 
2 *410:8 *1790:A 6.795 
3 *410:8 *1720:A2 5.445 
*END

*D_NET *411 0.00270441
*CONN
*I *1833:A I *D sky130_fd_sc_hd__nor2_2
*I *1725:B I *D sky130_fd_sc_hd__nor3_2
*I *1727:A1 I *D sky130_fd_sc_hd__o21a_2
*I *1723:Y O *D sky130_fd_sc_hd__a21oi_2
*CAP
1 *1833:A 0
2 *1725:B 0.000143336
3 *1727:A1 2.80549e-05
4 *1723:Y 0.000561306
5 *411:16 0.000481218
6 *411:8 0.000871133
7 *1725:B *1790:C_N 1.64141e-05
8 *1725:B *2099:CLK 8.41384e-05
9 *1725:B *2157:A 0.000107098
10 *1727:A1 *2099:CLK 8.52972e-05
11 *1727:A1 *680:10 2.69217e-05
12 *411:8 *1723:A1 1.16578e-05
13 *411:8 *1723:A2 2.11084e-05
14 *411:8 *1751:B 1.12578e-05
15 *411:16 *1726:B 1.10435e-05
16 *411:16 *1833:B 0
17 *411:16 *680:10 3.54721e-05
18 *411:16 *680:14 4.9536e-05
19 *2087:SET_B *411:16 0.00015942
*RES
1 *1723:Y *411:8 8.185 
2 *411:8 *411:16 10.015 
3 *411:16 *1727:A1 2.395 
4 *411:16 *1725:B 8.795 
5 *411:8 *1833:A 1.6 
*END

*D_NET *412 0.00260968
*CONN
*I *1832:A I *D sky130_fd_sc_hd__nor2_2
*I *1725:C I *D sky130_fd_sc_hd__nor3_2
*I *1727:A2 I *D sky130_fd_sc_hd__o21a_2
*I *1724:Y O *D sky130_fd_sc_hd__a21oi_2
*CAP
1 *1832:A 2.0132e-05
2 *1725:C 8.76461e-05
3 *1727:A2 8.19854e-05
4 *1724:Y 0.000209921
5 *412:14 0.00044778
6 *412:8 0.000508201
7 *1725:C *2157:A 0.000125123
8 *1725:C *2255:A 6.12027e-05
9 *1727:A2 *2099:CLK 0.000305697
10 *1727:A2 *2255:A 0.000231815
11 *412:8 *1724:A1 1.14192e-05
12 *412:8 *731:68 0.000106002
13 *412:14 *1832:B 0.000122821
14 *412:14 *1833:B 0.000119873
15 *412:14 *2157:A 4.87939e-05
16 *412:14 *731:12 2.10841e-05
17 *412:14 *731:68 3.0933e-05
18 *2100:D *1725:C 6.54361e-06
19 *2100:D *412:14 6.2706e-05
*RES
1 *1724:Y *412:8 5.17 
2 *412:8 *412:14 7.355 
3 *412:14 *1727:A2 6.465 
4 *412:14 *1725:C 5.685 
5 *412:8 *1832:A 1.96 
*END

*D_NET *413 0.00984335
*CONN
*I *1789:B1_N I *D sky130_fd_sc_hd__o21bai_2
*I *1781:A_N I *D sky130_fd_sc_hd__and2b_2
*I *1780:B I *D sky130_fd_sc_hd__or2_2
*I *1726:B I *D sky130_fd_sc_hd__and2_2
*I *1725:Y O *D sky130_fd_sc_hd__nor3_2
*CAP
1 *1789:B1_N 2.09559e-05
2 *1781:A_N 0.00136773
3 *1780:B 3.25634e-05
4 *1726:B 0.000410604
5 *1725:Y 9.90084e-05
6 *413:41 0.00192927
7 *413:31 0.00112508
8 *413:8 0.00108476
9 *1726:B *1610:A 1.29317e-05
10 *1726:B *1790:C_N 9.12857e-06
11 *1726:B *2057:CLK 1.31297e-05
12 *1726:B *2099:CLK 4.12775e-05
13 *1726:B *414:12 4.77757e-05
14 *1726:B *544:40 0.000112732
15 *1726:B *731:12 1.46781e-05
16 *1726:B *731:41 0.000419373
17 *1780:B *1780:A 2.75145e-05
18 *1781:A_N *1771:B 0
19 *1781:A_N *1788:A2 0.000126785
20 *1781:A_N *2242:A 2.04531e-05
21 *1781:A_N *446:12 0
22 *1781:A_N *681:36 0.000209708
23 *1781:A_N *681:50 1.19179e-05
24 *1781:A_N *736:12 4.66108e-05
25 *1789:B1_N *454:14 0
26 *413:8 *1790:C_N 3.33763e-05
27 *413:31 *1712:A1 0.00019003
28 *413:31 *1712:A3 7.27003e-05
29 *413:31 *1719:B 8.08153e-06
30 *413:31 *1720:B1_N 0
31 *413:31 *1790:C_N 4.59022e-06
32 *413:31 *544:34 8.7002e-05
33 *413:31 *544:36 8.94874e-05
34 *413:31 *544:40 7.77156e-05
35 *413:31 *732:22 0.000116853
36 *413:41 *1788:B1 0
37 *413:41 *1881:A 0
38 *413:41 *2242:A 0.000153434
39 *413:41 *2294:A 0
40 *413:41 *454:14 0.000301719
41 *413:41 *705:10 0.000113797
42 *413:41 *733:16 0.000132713
43 *1713:B1 *413:31 3.51072e-05
44 *1713:B1 *413:41 4.02708e-05
45 *1725:A *1726:B 2.93063e-05
46 *1725:A *413:31 6.12027e-05
47 *1760:B1 *1781:A_N 0
48 *1831:A *413:31 0.000286635
49 *2061:D *413:31 0.000160431
50 *2063:RESET_B *413:41 1.1561e-05
51 *2086:D *1780:B 4.82863e-05
52 *2089:D *413:41 2.68526e-05
53 *325:10 *1781:A_N 0
54 *325:10 *413:41 0
55 *404:16 *413:31 0.000148893
56 *404:16 *413:41 0.00041828
57 *411:16 *1726:B 1.10435e-05
*RES
1 *1725:Y *413:8 4.74 
2 *413:8 *1726:B 12.06 
3 *413:8 *413:31 16.715 
4 *413:31 *413:41 15.065 
5 *413:41 *1780:B 4.41 
6 *413:41 *1781:A_N 9.29713 
7 *413:31 *1789:B1_N 1.96 
*END

*D_NET *414 0.00122061
*CONN
*I *1730:A I *D sky130_fd_sc_hd__or2_2
*I *1733:A I *D sky130_fd_sc_hd__or2_2
*I *1726:X O *D sky130_fd_sc_hd__and2_2
*CAP
1 *1730:A 8.58444e-05
2 *1733:A 0
3 *1726:X 0.000172896
4 *414:12 0.00025874
5 *1730:A *1730:B 0.000114459
6 *414:12 *1730:B 0.000304758
7 *1726:B *414:12 4.77757e-05
8 *2057:D *1730:A 2.86975e-05
9 *2057:D *414:12 8.74345e-06
10 *2058:D *1730:A 5.63041e-05
11 *2058:D *414:12 0.000113697
12 *2058:RESET_B *1730:A 2.86975e-05
*RES
1 *1726:X *414:12 9.725 
2 *414:12 *1733:A 1.6 
3 *414:12 *1730:A 4.12 
*END

*D_NET *415 0.00260704
*CONN
*I *1729:A1 I *D sky130_fd_sc_hd__o21a_2
*I *1732:A1 I *D sky130_fd_sc_hd__o21a_2
*I *1790:B I *D sky130_fd_sc_hd__or3b_2
*I *1727:X O *D sky130_fd_sc_hd__o21a_2
*CAP
1 *1729:A1 0
2 *1732:A1 0.000466923
3 *1790:B 0
4 *1727:X 8.43395e-05
5 *415:23 0.000803435
6 *415:12 0.000420851
7 *1732:A1 *1729:A2 2.68526e-05
8 *1732:A1 *1729:B1 4.66108e-05
9 *1732:A1 *1730:B 1.83182e-05
10 *1732:A1 *1732:B1 0
11 *1732:A1 *1848:A 0.000132849
12 *1732:A1 *724:16 2.98644e-05
13 *415:12 *544:42 4.77769e-05
14 *415:23 *1730:B 0.000159417
15 *1728:B1 *1732:A1 0.000195271
16 *1731:B1 *1732:A1 9.24079e-05
17 *1790:A *415:23 6.72833e-06
18 *2087:D *415:12 7.03276e-05
19 *329:12 *1732:A1 5.06382e-06
*RES
1 *1727:X *415:12 6.92 
2 *415:12 *1790:B 1.6 
3 *415:12 *415:23 5.565 
4 *415:23 *1732:A1 14.015 
5 *415:23 *1729:A1 1.6 
*END

*D_NET *416 0.000555805
*CONN
*I *1729:A2 I *D sky130_fd_sc_hd__o21a_2
*I *1728:Y O *D sky130_fd_sc_hd__a21oi_2
*CAP
1 *1729:A2 0.000108436
2 *1728:Y 0.000108436
3 *1729:A2 *1730:B 4.75991e-05
4 *1729:A2 *2057:CLK 4.77757e-05
5 *1729:A2 *731:41 8.35106e-05
6 *1728:B1 *1729:A2 0.000133196
7 *1732:A1 *1729:A2 2.68526e-05
*RES
1 *1728:Y *1729:A2 9.825 
*END

*D_NET *417 0.002416
*CONN
*I *1730:B I *D sky130_fd_sc_hd__or2_2
*I *1729:X O *D sky130_fd_sc_hd__o21a_2
*CAP
1 *1730:B 0.000806438
2 *1729:X 0.000806438
3 *1730:B *1729:B1 3.93467e-05
4 *1730:B *1846:A2 3.03586e-05
5 *1730:B *724:12 6.72833e-06
6 *1730:B *731:41 7.20473e-05
7 *1726:A *1730:B 1.00941e-05
8 *1729:A2 *1730:B 4.75991e-05
9 *1730:A *1730:B 0.000114459
10 *1732:A1 *1730:B 1.83182e-05
11 *414:12 *1730:B 0.000304758
12 *415:23 *1730:B 0.000159417
*RES
1 *1729:X *1730:B 19.17 
*END

*D_NET *418 0.00135558
*CONN
*I *1732:A2 I *D sky130_fd_sc_hd__o21a_2
*I *1731:Y O *D sky130_fd_sc_hd__a21oi_2
*CAP
1 *1732:A2 0.000197253
2 *1731:Y 0.000197253
3 *1732:A2 *1731:A1 4.36694e-06
4 *1732:A2 *1732:B1 0.000351011
5 *1732:A2 *1733:B 4.82919e-05
6 *1732:A2 *1846:B1 4.99619e-05
7 *1732:A2 *1848:A 0.000139655
8 *1732:A2 *723:8 4.66108e-05
9 *1732:A2 *724:12 0.000156643
10 *1731:A2 *1732:A2 3.45708e-05
11 *2057:D *1732:A2 0.000129968
*RES
1 *1731:Y *1732:A2 17.53 
*END

*D_NET *419 0.00110516
*CONN
*I *1733:B I *D sky130_fd_sc_hd__or2_2
*I *1732:X O *D sky130_fd_sc_hd__o21a_2
*CAP
1 *1733:B 0.000423202
2 *1732:X 0.000423202
3 *1733:B *1846:A1 4.57056e-05
4 *1733:B *1846:B1 8.12469e-05
5 *1733:B *1848:A 8.35106e-05
6 *1732:A2 *1733:B 4.82919e-05
*RES
1 *1732:X *1733:B 8.66 
*END

*D_NET *420 0.000382154
*CONN
*I *1735:A2 I *D sky130_fd_sc_hd__o21a_2
*I *1734:Y O *D sky130_fd_sc_hd__nand2_2
*CAP
1 *1735:A2 7.88049e-05
2 *1734:Y 7.88049e-05
3 *1735:A2 *1612:A 1.14192e-05
4 *1735:A2 *1734:A 0.000136052
5 *1735:A2 *1736:A2 6.79482e-05
6 *1735:A2 *552:62 9.12494e-06
*RES
1 *1734:Y *1735:A2 9.285 
*END

*D_NET *421 0.00417621
*CONN
*I *1792:B I *D sky130_fd_sc_hd__and2_2
*I *1738:B I *D sky130_fd_sc_hd__nor2_2
*I *1795:B1_N I *D sky130_fd_sc_hd__a21bo_2
*I *1737:Y O *D sky130_fd_sc_hd__nand2_2
*CAP
1 *1792:B 0.000442191
2 *1738:B 2.0132e-05
3 *1795:B1_N 0.000276878
4 *1737:Y 0.000152142
5 *421:25 0.000717459
6 *421:10 0.000684156
7 *1792:B *1742:A_N 0.000181383
8 *1792:B *2162:A 0
9 *1792:B *694:8 8.65961e-05
10 *1792:B *701:24 0.000154708
11 *1792:B *706:34 0.000407465
12 *1795:B1_N *2162:A 0.000124388
13 *1795:B1_N *692:31 4.90185e-05
14 *421:10 *537:28 8.65905e-05
15 *421:10 *692:42 0
16 *421:25 *701:24 0.000350738
17 *421:25 *722:10 1.79174e-05
18 mem_addr[10] *1792:B 8.65961e-05
19 mem_addr[6] *1792:B 0
20 *1740:B2 *1795:B1_N 0.00010163
21 *1740:B2 *421:10 6.20408e-05
22 *1743:A1 *1792:B 1.44259e-05
23 *2092:D *1792:B 0.000159755
24 *2092:RESET_B *1792:B 0
25 *407:12 *421:10 0
*RES
1 *1737:Y *421:10 6.54 
2 *421:10 *1795:B1_N 9.18375 
3 *421:10 *421:25 7.625 
4 *421:25 *1738:B 1.96 
5 *421:25 *1792:B 16.925 
*END

*D_NET *422 0.00116924
*CONN
*I *1740:A2 I *D sky130_fd_sc_hd__o22a_2
*I *1738:Y O *D sky130_fd_sc_hd__nor2_2
*CAP
1 *1740:A2 0.000360895
2 *1738:Y 0.000360895
3 *1740:A2 *1740:A1 2.21074e-05
4 *1740:A2 *2216:A 6.92161e-05
5 *1740:A2 *692:14 2.15454e-05
6 *1740:A2 *706:12 0.000109463
7 *1740:A2 *722:10 4.70799e-05
8 *1740:A2 *722:12 1.83205e-05
9 *2054:RESET_B *1740:A2 0.000159722
*RES
1 *1738:Y *1740:A2 13.155 
*END

*D_NET *423 0.00364879
*CONN
*I *1797:C1 I *D sky130_fd_sc_hd__a211o_2
*I *1740:B1 I *D sky130_fd_sc_hd__o22a_2
*I *1739:Y O *D sky130_fd_sc_hd__nor2_2
*CAP
1 *1797:C1 0.000495928
2 *1740:B1 0.000296509
3 *1739:Y 0.000792437
4 *1740:B1 *1938:A 6.18661e-05
5 *1797:C1 *1755:B1 6.95079e-05
6 *1797:C1 *1765:B 0
7 *1797:C1 *1796:C 3.05373e-05
8 *1797:C1 *1938:A 0.000156778
9 *1797:C1 *430:12 0
10 *1797:C1 *552:12 0.000271341
11 *1797:C1 *690:8 6.72833e-06
12 *1797:C1 *690:18 0.000163212
13 *1739:B *1740:B1 4.89395e-05
14 *1739:B *1797:C1 0.000254497
15 *2054:D *1740:B1 5.11067e-05
16 *2054:RESET_B *1740:B1 0.000197243
17 *2094:SET_B *1797:C1 0.000210151
18 *13:12 *1797:C1 0.00023485
19 *327:10 *1797:C1 0.000307159
*RES
1 *1739:Y *1740:B1 9.185 
2 *1739:Y *1797:C1 22.56 
*END

*D_NET *424 0.000891823
*CONN
*I *1743:A2 I *D sky130_fd_sc_hd__a31o_2
*I *1741:X O *D sky130_fd_sc_hd__a22o_2
*CAP
1 *1743:A2 0.000266882
2 *1741:X 0.000266882
3 *1743:A2 *1741:A1 0.000194431
4 *1743:A2 *1741:A2 8.96017e-05
5 *1743:A2 *1743:A3 7.4027e-05
*RES
1 *1741:X *1743:A2 11.2163 
*END

*D_NET *425 0.00170582
*CONN
*I *1743:A3 I *D sky130_fd_sc_hd__a31o_2
*I *1742:Y O *D sky130_fd_sc_hd__nand3b_2
*CAP
1 *1743:A3 0.000629926
2 *1742:Y 0.000629926
3 *1743:A3 *1741:A1 0
4 *1743:A3 *1741:A2 0.000116151
5 *1743:A3 *1742:B 0
6 *1743:A3 *1742:C 2.65814e-06
7 *1743:A3 *1791:B1 7.23533e-05
8 *1743:A3 *552:62 3.81133e-05
9 *1743:A3 *721:14 0.000142661
10 *1743:A2 *1743:A3 7.4027e-05
*RES
1 *1742:Y *1743:A3 16.56 
*END

*D_NET *426 0.00737603
*CONN
*I *1766:A1 I *D sky130_fd_sc_hd__a21boi_2
*I *1770:A1_N I *D sky130_fd_sc_hd__o2bb2a_2
*I *1756:A I *D sky130_fd_sc_hd__nor2_2
*I *1749:B1 I *D sky130_fd_sc_hd__a21oi_2
*I *1793:B I *D sky130_fd_sc_hd__nand2_2
*I *1797:A2 I *D sky130_fd_sc_hd__a211o_2
*I *1743:X O *D sky130_fd_sc_hd__a31o_2
*CAP
1 *1766:A1 0.000200912
2 *1770:A1_N 0.000123115
3 *1756:A 0.000214078
4 *1749:B1 8.80447e-05
5 *1793:B 0.000389658
6 *1797:A2 5.55752e-05
7 *1743:X 0.000200085
8 *426:67 0.000483014
9 *426:54 0.000373065
10 *426:43 0.000527773
11 *426:22 0.000973896
12 *1749:B1 *428:10 4.91778e-05
13 *1756:A *690:54 0.000411486
14 *1756:A *714:36 0
15 *1766:A1 *1755:B1 4.77757e-05
16 *1766:A1 *1766:A2 4.66108e-05
17 *1766:A1 *1766:B1_N 2.10152e-05
18 *1766:A1 *1770:A2_N 6.61627e-05
19 *1766:A1 *690:54 0.000173317
20 *1770:A1_N *1755:A1 2.05056e-05
21 *1770:A1_N *1761:A 0.000123164
22 *1770:A1_N *1770:A2_N 0.000132167
23 *1770:A1_N *1770:B1 0.000196669
24 *1770:A1_N *1770:B2 3.48117e-05
25 *1770:A1_N *437:6 0.000177277
26 *1793:B *1791:B1 4.85795e-05
27 *1793:B *1793:A 4.00541e-06
28 *1793:B *1794:A2 0
29 *1793:B *2093:D 4.99619e-05
30 *1793:B *552:62 0.000208937
31 *1793:B *692:59 4.91189e-05
32 *1793:B *692:78 2.24336e-05
33 *1797:A2 *1796:A 0.000237243
34 *1797:A2 *556:20 0.000162311
35 *426:22 *1796:A 8.23457e-05
36 *426:22 *552:62 0.000273695
37 *426:22 *692:78 6.02191e-05
38 *426:43 *1749:A2 0.000234349
39 *426:43 *1765:A 4.21579e-05
40 *426:43 *428:10 8.34281e-06
41 *426:43 *721:14 4.82863e-05
42 *426:67 *1755:A2 9.54469e-05
43 *426:67 *1755:A3 1.25877e-05
44 *426:67 *427:32 2.92496e-05
45 *426:67 *690:54 0.000330735
46 *2094:D *426:22 6.5525e-05
47 *2094:SET_B *426:43 0.000160641
48 *2215:A *1793:B 2.05056e-05
*RES
1 *1743:X *1797:A2 5.375 
2 *1743:X *426:22 7.56 
3 *426:22 *1793:B 10.56 
4 *426:22 *426:43 9.005 
5 *426:43 *1749:B1 3.1 
6 *426:43 *426:54 2 
7 *426:54 *1756:A 8.295 
8 *426:54 *426:67 5.93 
9 *426:67 *1770:A1_N 6.2275 
10 *426:67 *1766:A1 9.68 
*END

*D_NET *427 0.00297826
*CONN
*I *1755:A1 I *D sky130_fd_sc_hd__a31o_2
*I *1770:B1 I *D sky130_fd_sc_hd__o2bb2a_2
*I *1744:X O *D sky130_fd_sc_hd__or2_2
*CAP
1 *1755:A1 6.5156e-05
2 *1770:B1 6.156e-05
3 *1744:X 0.0007924
4 *427:32 0.000919116
5 *1770:B1 *437:6 8.52883e-05
6 *427:32 *1770:A2_N 0
7 *427:32 *1949:A 0.000440566
8 *427:32 *2150:A 0.000159329
9 *427:32 *446:12 1.40384e-05
10 *427:32 *550:10 2.62725e-05
11 *427:32 *690:54 5.28079e-05
12 *427:32 *713:10 0
13 *1770:A1_N *1755:A1 2.05056e-05
14 *1770:A1_N *1770:B1 0.000196669
15 *2050:D *427:32 0.000115303
16 *426:67 *427:32 2.92496e-05
*RES
1 *1744:X *427:32 22.815 
2 *427:32 *1770:B1 3.43 
3 *427:32 *1755:A1 2.77 
*END

*D_NET *428 0.000871076
*CONN
*I *1765:A I *D sky130_fd_sc_hd__nand2_2
*I *1749:A1 I *D sky130_fd_sc_hd__a21oi_2
*I *1745:X O *D sky130_fd_sc_hd__or3b_2
*CAP
1 *1765:A 3.49619e-05
2 *1749:A1 0
3 *1745:X 0.000259622
4 *428:10 0.000294584
5 *1765:A *1749:A2 8.64421e-05
6 *1765:A *1755:B1 8.49117e-05
7 *428:10 *1755:B1 1.08758e-05
8 *1749:B1 *428:10 4.91778e-05
9 *426:43 *1765:A 4.21579e-05
10 *426:43 *428:10 8.34281e-06
*RES
1 *1745:X *428:10 5.53 
2 *428:10 *1749:A1 1.6 
3 *428:10 *1765:A 3.085 
*END

*D_NET *429 0.000446421
*CONN
*I *1755:A2 I *D sky130_fd_sc_hd__a31o_2
*I *1746:Y O *D sky130_fd_sc_hd__nand2b_2
*CAP
1 *1755:A2 8.28495e-05
2 *1746:Y 8.28495e-05
3 *1755:A2 *1746:B 2.86975e-05
4 *1755:A2 *1755:A3 0.000156578
5 *426:67 *1755:A2 9.54469e-05
*RES
1 *1746:Y *1755:A2 9.465 
*END

*D_NET *430 0.0027129
*CONN
*I *1748:B I *D sky130_fd_sc_hd__or3b_2
*I *1765:B I *D sky130_fd_sc_hd__nand2_2
*I *1756:B I *D sky130_fd_sc_hd__nor2_2
*I *1767:A2 I *D sky130_fd_sc_hd__o21a_2
*I *1747:Y O *D sky130_fd_sc_hd__nand3b_2
*CAP
1 *1748:B 0
2 *1765:B 0.000154306
3 *1756:B 0.000153107
4 *1767:A2 0.000239034
5 *1747:Y 0.000224951
6 *430:12 0.000509834
7 *430:10 0.000271999
8 *430:8 0.000224951
9 *1756:B *690:18 0.000232949
10 *1756:B *690:20 0.00012438
11 *1765:B *1749:A2 3.42142e-05
12 *1765:B *1755:B1 5.4003e-05
13 *1765:B *552:12 8.09021e-06
14 *1767:A2 *1767:B1 8.52972e-05
15 *1767:A2 *690:18 0.000313259
16 *1767:A2 *701:24 3.93531e-05
17 *430:8 *1748:A 2.65814e-06
18 *1797:C1 *1765:B 0
19 *1797:C1 *430:12 0
20 *2049:D *1767:A2 4.05127e-05
*RES
1 *1747:Y *430:8 4.135 
2 *430:8 *430:10 2 
3 *430:10 *430:12 1.89 
4 *430:12 *1767:A2 9.015 
5 *430:12 *1756:B 7.17 
6 *430:10 *1765:B 6.255 
7 *430:8 *1748:B 1.6 
*END

*D_NET *431 0.000812908
*CONN
*I *1749:A2 I *D sky130_fd_sc_hd__a21oi_2
*I *1748:X O *D sky130_fd_sc_hd__or3b_2
*CAP
1 *1749:A2 0.000100734
2 *1748:X 0.000100734
3 *1749:A2 *1755:B1 0.000114836
4 *1749:A2 *552:12 0.000141599
5 *1765:A *1749:A2 8.64421e-05
6 *1765:B *1749:A2 3.42142e-05
7 *426:43 *1749:A2 0.000234349
*RES
1 *1748:X *1749:A2 11.01 
*END

*D_NET *432 0.00179909
*CONN
*I *1755:B1 I *D sky130_fd_sc_hd__a31o_2
*I *1749:Y O *D sky130_fd_sc_hd__a21oi_2
*CAP
1 *1755:B1 0.000440896
2 *1749:Y 0.000440896
3 *1755:B1 *1770:A2_N 4.10688e-05
4 *1755:B1 *1796:C 5.81675e-05
5 *1755:B1 *1797:B1 8.35068e-05
6 *1755:B1 *444:8 0.000296081
7 *1755:B1 *552:12 5.65627e-05
8 *1749:A2 *1755:B1 0.000114836
9 *1765:A *1755:B1 8.49117e-05
10 *1765:B *1755:B1 5.4003e-05
11 *1766:A1 *1755:B1 4.77757e-05
12 *1797:C1 *1755:B1 6.95079e-05
13 *428:10 *1755:B1 1.08758e-05
*RES
1 *1749:Y *1755:B1 16.59 
*END

*D_NET *433 0.00323912
*CONN
*I *1752:A1 I *D sky130_fd_sc_hd__o21a_2
*I *1754:C1 I *D sky130_fd_sc_hd__a221o_2
*I *1768:A1 I *D sky130_fd_sc_hd__o21a_2
*I *1750:X O *D sky130_fd_sc_hd__or3b_2
*CAP
1 *1752:A1 0
2 *1754:C1 0
3 *1768:A1 0.000293406
4 *1750:X 0.000182445
5 *433:20 0.000581102
6 *433:12 0.000470141
7 *1768:A1 *1723:A1 6.90876e-05
8 *1768:A1 *1751:B 0
9 *1768:A1 *1754:B2 0.000161256
10 *1768:A1 *1768:A2 0.000281058
11 *1768:A1 *1768:B1 0.000164874
12 *1768:A1 *2047:CLK 7.95407e-05
13 *1768:A1 *435:12 3.75882e-06
14 *433:12 *1750:B 0
15 *433:12 *1750:C_N 3.23391e-05
16 *433:12 *1752:A2 9.12494e-06
17 *433:12 *1757:A1 8.53113e-06
18 *433:12 *1942:A 8.40213e-05
19 *433:12 *436:12 0.000245441
20 *433:20 *1752:B1 0.000122817
21 *433:20 *2047:CLK 0.000245428
22 *433:20 *435:12 4.69244e-05
23 *433:20 *701:24 4.29365e-05
24 *2047:D *1768:A1 2.30292e-05
25 *2048:D *433:20 9.18556e-05
*RES
1 *1750:X *433:12 9.305 
2 *433:12 *433:20 8.465 
3 *433:20 *1768:A1 11.52 
4 *433:20 *1754:C1 3.6 
5 *433:12 *1752:A1 1.6 
*END

*D_NET *434 0.00149515
*CONN
*I *1752:A2 I *D sky130_fd_sc_hd__o21a_2
*I *1754:A2 I *D sky130_fd_sc_hd__a221o_2
*I *1751:Y O *D sky130_fd_sc_hd__nand2b_2
*CAP
1 *1752:A2 0.000215828
2 *1754:A2 0
3 *1751:Y 0.000193575
4 *434:12 0.000409403
5 *1752:A2 *1724:A1 1.87602e-05
6 *1752:A2 *1768:A2 4.28112e-06
7 *1752:A2 *435:12 6.90545e-05
8 *1752:A2 *436:12 0.000152405
9 *1752:A2 *689:17 2.90167e-05
10 *434:12 *1724:A1 0.000141582
11 *434:12 *1751:A_N 0.000110804
12 *434:12 *689:17 0.000141312
13 *2047:D *434:12 0
14 *433:12 *1752:A2 9.12494e-06
*RES
1 *1751:Y *434:12 10.3325 
2 *434:12 *1754:A2 1.6 
3 *434:12 *1752:A2 10.0625 
*END

*D_NET *435 0.00204657
*CONN
*I *1754:B1 I *D sky130_fd_sc_hd__a221o_2
*I *1768:A2 I *D sky130_fd_sc_hd__o21a_2
*I *1753:Y O *D sky130_fd_sc_hd__nand2b_2
*CAP
1 *1754:B1 0
2 *1768:A2 0.000201301
3 *1753:Y 0.000389702
4 *435:12 0.000591003
5 *1768:A2 *1751:A_N 0
6 *435:12 *550:36 0.000156269
7 *435:12 *550:49 1.54665e-05
8 *435:12 *731:124 0.00012398
9 *1752:A2 *1768:A2 4.28112e-06
10 *1752:A2 *435:12 6.90545e-05
11 *1768:A1 *1768:A2 0.000281058
12 *1768:A1 *435:12 3.75882e-06
13 *2047:D *1768:A2 0.000163772
14 *433:20 *435:12 4.69244e-05
*RES
1 *1753:Y *435:12 10.875 
2 *435:12 *1768:A2 8.415 
3 *435:12 *1754:B1 3.6 
*END

*D_NET *436 0.00571087
*CONN
*I *1762:A I *D sky130_fd_sc_hd__nand2_2
*I *1769:A1 I *D sky130_fd_sc_hd__a21o_2
*I *1755:A3 I *D sky130_fd_sc_hd__a31o_2
*I *1754:X O *D sky130_fd_sc_hd__a221o_2
*CAP
1 *1762:A 3.79802e-05
2 *1769:A1 0.000108289
3 *1755:A3 0.000386842
4 *1754:X 0.000524538
5 *436:33 0.000618705
6 *436:12 0.00138382
7 *1755:A3 *1746:A_N 2.68526e-05
8 *1755:A3 *1746:B 5.18171e-05
9 *1755:A3 *2248:A 6.97202e-05
10 *1755:A3 *712:42 4.80285e-05
11 *1762:A *550:10 1.38662e-05
12 *1769:A1 *550:10 4.9736e-05
13 *436:12 *1757:A0 0.000294414
14 *436:12 *1757:A1 0.000379544
15 *436:12 *2231:A 0.000112595
16 *436:12 *437:23 0.000230869
17 *436:12 *712:25 6.64068e-05
18 *436:12 *712:36 7.34364e-05
19 *436:12 *713:12 0
20 *436:12 *731:124 0
21 *436:33 *1744:A 4.66108e-05
22 *436:33 *1744:B 0.000102125
23 *436:33 *1762:B 5.05437e-05
24 *436:33 *437:23 8.59365e-05
25 *436:33 *446:12 0.000252275
26 *436:33 *550:10 9.49997e-05
27 *436:33 *712:42 3.39069e-05
28 *436:33 *713:10 0
29 *436:33 *713:12 0
30 *1752:A2 *436:12 0.000152405
31 *1755:A2 *1755:A3 0.000156578
32 *2053:D *436:12 0
33 *2053:RESET_B *436:12 0
34 *426:67 *1755:A3 1.25877e-05
35 *433:12 *436:12 0.000245441
*RES
1 *1754:X *436:12 18.54 
2 *436:12 *1755:A3 12.97 
3 *436:12 *436:33 10.655 
4 *436:33 *1769:A1 2.935 
5 *436:33 *1762:A 2.3425 
*END

*D_NET *437 0.0027028
*CONN
*I *1757:S I *D sky130_fd_sc_hd__mux2_1
*I *1764:B I *D sky130_fd_sc_hd__and2_2
*I *1763:A2 I *D sky130_fd_sc_hd__a22o_2
*I *1755:X O *D sky130_fd_sc_hd__a31o_2
*CAP
1 *1757:S 0
2 *1764:B 0.000222281
3 *1763:A2 0.000196834
4 *1755:X 0.000153837
5 *437:23 0.00035331
6 *437:6 0.0004817
7 *1763:A2 *1761:A 4.80285e-05
8 *1763:A2 *1763:A1 0.00012047
9 *1763:A2 *441:17 0
10 *1763:A2 *442:10 4.82919e-05
11 *1763:A2 *713:60 9.80032e-06
12 *1763:A2 *713:64 4.43682e-05
13 *1764:B *1757:A0 8.65905e-05
14 *437:6 *1761:A 8.52315e-05
15 *437:6 *1770:A2_N 0.000195586
16 *437:23 *1764:A 0
17 *437:23 *712:42 7.71016e-05
18 *437:23 *731:124 0
19 *1770:A1_N *437:6 0.000177277
20 *1770:B1 *437:6 8.52883e-05
21 *436:12 *437:23 0.000230869
22 *436:33 *437:23 8.59365e-05
*RES
1 *1755:X *437:6 5.5 
2 *437:6 *1763:A2 5.425 
3 *437:6 *437:23 7.675 
4 *437:23 *1764:B 5.17 
5 *437:23 *1757:S 1.6 
*END

*D_NET *438 0.00144988
*CONN
*I *1757:A0 I *D sky130_fd_sc_hd__mux2_1
*I *1756:Y O *D sky130_fd_sc_hd__nor2_2
*CAP
1 *1757:A0 0.000472915
2 *1756:Y 0.000472915
3 *1757:A0 *1757:A1 4.82863e-05
4 *1757:A0 *690:20 3.66977e-05
5 *1757:A0 *714:8 3.80606e-05
6 *1757:A0 *731:124 0
7 *1764:B *1757:A0 8.65905e-05
8 *2053:D *1757:A0 0
9 *436:12 *1757:A0 0.000294414
*RES
1 *1756:Y *1757:A0 15.66 
*END

*D_NET *439 0.00057694
*CONN
*I *1760:A2 I *D sky130_fd_sc_hd__a31oi_2
*I *1758:X O *D sky130_fd_sc_hd__a22o_2
*CAP
1 *1760:A2 0.00018554
2 *1758:X 0.00018554
3 *1760:A2 *1758:A1 1.17409e-05
4 *1760:A2 *1758:A2 3.64998e-06
5 *1760:A2 *1760:A3 7.16268e-05
6 *1760:A2 *544:34 6.55328e-05
7 *1760:A2 *555:80 5.33085e-05
8 *1760:A2 *555:84 0
*RES
1 *1758:X *1760:A2 11.07 
*END

*D_NET *440 0.00114574
*CONN
*I *1760:A3 I *D sky130_fd_sc_hd__a31oi_2
*I *1759:Y O *D sky130_fd_sc_hd__nand3b_2
*CAP
1 *1760:A3 0.000230596
2 *1759:Y 0.000230596
3 *1760:A3 *1758:B1 2.75229e-05
4 *1760:A3 *1758:B2 0.000117376
5 *1760:A3 *544:34 0.00013994
6 *1760:A3 *735:10 0.00031682
7 *1760:A3 *735:14 1.12578e-05
8 *1760:A2 *1760:A3 7.16268e-05
*RES
1 *1759:Y *1760:A3 13.395 
*END

*D_NET *441 0.00177904
*CONN
*I *1763:B1 I *D sky130_fd_sc_hd__a22o_2
*I *1769:B1 I *D sky130_fd_sc_hd__a21o_2
*I *1782:A_N I *D sky130_fd_sc_hd__nand2b_2
*I *1760:Y O *D sky130_fd_sc_hd__a31oi_2
*CAP
1 *1763:B1 7.02535e-05
2 *1769:B1 0.000207699
3 *1782:A_N 0
4 *1760:Y 0.000169944
5 *441:17 0.000535177
6 *441:8 0.000427169
7 *1763:B1 *1763:B2 6.30211e-05
8 *1769:B1 *550:10 8.78323e-05
9 *1769:B1 *550:12 0.000130065
10 *1769:B1 *681:32 0
11 *1769:B1 *736:10 0
12 *441:8 *1782:B 1.19928e-05
13 *441:8 *1980:A 2.05056e-05
14 *441:17 *1763:B2 5.4155e-06
15 *1760:B1 *441:8 4.99619e-05
16 *1763:A2 *441:17 0
*RES
1 *1760:Y *441:8 4.48 
2 *441:8 *1782:A_N 1.6 
3 *441:8 *441:17 3.915 
4 *441:17 *1769:B1 10.04 
5 *441:17 *1763:B1 2.74 
*END

*D_NET *442 0.00168776
*CONN
*I *1769:A2 I *D sky130_fd_sc_hd__a21o_2
*I *1762:B I *D sky130_fd_sc_hd__nand2_2
*I *1761:X O *D sky130_fd_sc_hd__or3b_2
*CAP
1 *1769:A2 0.000252907
2 *1762:B 1.73341e-05
3 *1761:X 0.000186761
4 *442:10 0.000457002
5 *1762:B *550:10 8.52972e-05
6 *1769:A2 *1763:B2 8.7152e-06
7 *1769:A2 *446:12 9.93043e-06
8 *1769:A2 *535:33 0.000120758
9 *1769:A2 *550:10 2.02052e-05
10 *442:10 *1744:A 0.000100316
11 *442:10 *712:42 3.47668e-05
12 *442:10 *731:124 0.000158643
13 *1763:A2 *442:10 4.82919e-05
14 *2052:RESET_B *442:10 0.00013629
15 *436:33 *1762:B 5.05437e-05
*RES
1 *1761:X *442:10 8.745 
2 *442:10 *1762:B 4.395 
3 *442:10 *1769:A2 5.27837 
*END

*D_NET *443 0.000873246
*CONN
*I *1763:B2 I *D sky130_fd_sc_hd__a22o_2
*I *1762:Y O *D sky130_fd_sc_hd__nand2_2
*CAP
1 *1763:B2 0.000206206
2 *1762:Y 0.000206206
3 *1763:B2 *1763:A1 3.02252e-05
4 *1763:B2 *550:10 7.24973e-05
5 *1763:B2 *550:12 9.24127e-05
6 *1763:B2 *713:64 0
7 *1763:B2 *731:124 6.83606e-05
8 *1763:B1 *1763:B2 6.30211e-05
9 *1769:A2 *1763:B2 8.7152e-06
10 *2052:D *1763:B2 0.000120186
11 *441:17 *1763:B2 5.4155e-06
*RES
1 *1762:Y *1763:B2 12.48 
*END

*D_NET *444 0.0030612
*CONN
*I *1766:A2 I *D sky130_fd_sc_hd__a21boi_2
*I *1770:A2_N I *D sky130_fd_sc_hd__o2bb2a_2
*I *1765:Y O *D sky130_fd_sc_hd__nand2_2
*CAP
1 *1766:A2 0.000143988
2 *1770:A2_N 0.000607527
3 *1765:Y 0.000194553
4 *444:8 0.000946069
5 *1766:A2 *1766:B1_N 0.000288664
6 *1770:A2_N *1797:B1 2.68464e-05
7 *1770:A2_N *713:10 0
8 *1770:A2_N *714:70 3.67779e-05
9 *444:8 *1766:B1_N 8.53113e-06
10 *444:8 *1796:C 3.05646e-05
11 *1755:B1 *1770:A2_N 4.10688e-05
12 *1755:B1 *444:8 0.000296081
13 *1766:A1 *1766:A2 4.66108e-05
14 *1766:A1 *1770:A2_N 6.61627e-05
15 *1770:A1_N *1770:A2_N 0.000132167
16 *427:32 *1770:A2_N 0
17 *437:6 *1770:A2_N 0.000195586
*RES
1 *1765:Y *444:8 7.785 
2 *444:8 *1770:A2_N 15.4 
3 *444:8 *1766:A2 6.81 
*END

*D_NET *445 0.0048095
*CONN
*I *1771:A I *D sky130_fd_sc_hd__nand2_2
*I *1773:B I *D sky130_fd_sc_hd__and2_2
*I *1887:A1 I *D sky130_fd_sc_hd__a2111oi_2
*I *1769:X O *D sky130_fd_sc_hd__a21o_2
*CAP
1 *1771:A 0.00039418
2 *1773:B 0
3 *1887:A1 0.000442931
4 *1769:X 0.000617597
5 *445:18 0.000666348
6 *1771:A *1771:B 4.77807e-05
7 *1771:A *1887:B1 2.18843e-05
8 *1771:A *2146:A 4.88778e-05
9 *1771:A *2242:A 2.93136e-05
10 *1771:A *535:76 6.06594e-05
11 *1771:A *545:49 3.46161e-05
12 *1887:A1 *1773:A 8.53011e-05
13 *1887:A1 *545:49 4.77769e-05
14 *445:18 *1625:B 0.000156774
15 *445:18 *1773:A 6.42647e-05
16 *445:18 *1781:B 0.000233604
17 *445:18 *1788:A2 0.000289922
18 *445:18 *1788:B1 0.000112029
19 *445:18 *1788:B2 0.000346099
20 *445:18 *545:8 0.000307977
21 *445:18 *545:45 1.18159e-05
22 *445:18 *736:12 0.000454007
23 *1760:A1 *445:18 8.41384e-05
24 *1885:A1 *1771:A 8.65905e-05
25 *2086:RESET_B *445:18 7.47005e-05
26 *2091:D *445:18 9.03138e-05
*RES
1 *1769:X *445:18 22.655 
2 *445:18 *1887:A1 2.74 
3 *445:18 *1773:B 1.6 
4 *1887:A1 *1771:A 13.83 
*END

*D_NET *446 0.00713517
*CONN
*I *1887:A2 I *D sky130_fd_sc_hd__a2111oi_2
*I *1771:B I *D sky130_fd_sc_hd__nand2_2
*I *1770:X O *D sky130_fd_sc_hd__o2bb2a_2
*CAP
1 *1887:A2 2.79924e-05
2 *1771:B 0.000394179
3 *1770:X 0.00240603
4 *446:12 0.0028282
5 *1771:B *2146:A 0.000152941
6 *1771:B *535:76 2.49909e-05
7 *1887:A2 *506:10 0
8 *1887:A2 *545:45 1.52238e-05
9 *446:12 *1744:B 0
10 *446:12 *1949:A 5.78499e-05
11 *446:12 *535:33 0.000661143
12 *446:12 *681:36 2.58618e-05
13 *446:12 *681:50 2.20023e-05
14 *446:12 *713:10 2.87867e-05
15 *1769:A2 *446:12 9.93043e-06
16 *1771:A *1771:B 4.77807e-05
17 *1781:A_N *1771:B 0
18 *1781:A_N *446:12 0
19 *1887:C1 *1771:B 0.000165943
20 *2052:RESET_B *446:12 0
21 *427:32 *446:12 1.40384e-05
22 *436:33 *446:12 0.000252275
*RES
1 *1770:X *446:12 13.3161 
2 *446:12 *1771:B 7.07163 
3 *446:12 *1887:A2 4.5875 
*END

*D_NET *447 0.015986
*CONN
*I *1884:B I *D sky130_fd_sc_hd__and3_2
*I *1772:A I *D sky130_fd_sc_hd__inv_2
*I *1866:A I *D sky130_fd_sc_hd__and3_2
*I *1853:A I *D sky130_fd_sc_hd__and2_2
*I *1847:A3 I *D sky130_fd_sc_hd__a31o_2
*I *1844:A2 I *D sky130_fd_sc_hd__a21oi_2
*I *1846:A2 I *D sky130_fd_sc_hd__a21oi_2
*I *1845:A2 I *D sky130_fd_sc_hd__o21a_2
*I *1849:A3 I *D sky130_fd_sc_hd__a31oi_2
*I *1850:D I *D sky130_fd_sc_hd__and4_2
*I *1771:Y O *D sky130_fd_sc_hd__nand2_2
*CAP
1 *1884:B 0.000211116
2 *1772:A 3.65319e-05
3 *1866:A 7.54045e-05
4 *1853:A 0.00057202
5 *1847:A3 0.000120759
6 *1844:A2 0
7 *1846:A2 0.00117002
8 *1845:A2 0.000108501
9 *1849:A3 0.00028324
10 *1850:D 6.36988e-05
11 *1771:Y 0.000224883
12 *447:92 0.000120759
13 *447:42 0.00109124
14 *447:36 0.00115141
15 *447:34 0.00154683
16 *447:30 0.00072214
17 *447:26 0.00135115
18 *447:20 0.000250337
19 *447:18 0.000351292
20 *447:12 0.000711019
21 *1772:A *2063:CLK 8.23457e-05
22 *1772:A *675:16 2.49909e-05
23 *1845:A2 *1845:B1 1.53179e-05
24 *1845:A2 *1846:B1 4.99619e-05
25 *1845:A2 *659:36 0
26 *1845:A2 *659:44 3.3249e-05
27 *1847:A3 *1847:A1 0.000450123
28 *1847:A3 *659:82 0.00054391
29 *1849:A3 *1849:A2 0.000361047
30 *1849:A3 *2290:A 2.49909e-05
31 *1850:D *1850:C 4.77719e-05
32 *1850:D *481:14 4.31222e-06
33 *1853:A *1853:B 0.000118156
34 *1853:A *1858:A1 3.83194e-05
35 *1866:A *1860:C 0.00016063
36 *1866:A *1866:C 8.8266e-05
37 *1866:A *492:43 1.47347e-05
38 *1884:B *1879:A 0.000201771
39 *1884:B *1879:B 0.000176072
40 *1884:B *2267:A 9.12494e-06
41 *1884:B *501:14 0.000119873
42 *1884:B *535:76 2.69217e-05
43 *1884:B *535:86 5.83121e-06
44 *1884:B *559:16 7.1624e-05
45 *447:12 *1609:A 8.23457e-05
46 *447:12 *504:6 7.9099e-05
47 *447:12 *504:19 7.26398e-05
48 *447:12 *535:76 2.86691e-05
49 *447:18 *1609:A 3.49693e-05
50 *447:18 *1857:A2 8.35683e-05
51 *447:18 *1860:C 0.000149766
52 *447:18 *1863:A2 0.000328079
53 *447:18 *1879:A 0.000112685
54 *447:18 *1879:B 0.000111011
55 *447:18 *1886:B 5.7344e-05
56 *447:18 *483:61 0.000247574
57 *447:18 *535:106 1.37992e-05
58 *447:20 *1860:C 0.000129047
59 *447:20 *483:61 0.000137578
60 *447:26 *1857:B1 0
61 *447:26 *1860:C 2.92496e-05
62 *447:26 *483:24 7.28752e-05
63 *447:26 *483:61 0.000113565
64 *447:26 *667:55 3.32238e-05
65 *447:30 *1845:B1 0
66 *447:30 *1856:A2 0.000138273
67 *447:30 *483:24 1.79536e-05
68 *447:30 *659:14 0
69 *447:30 *659:32 5.76922e-05
70 cpu_stall *447:34 0
71 *1710:B1_N *1853:A 3.82741e-05
72 *1710:B1_N *447:26 3.63701e-06
73 *1711:B1_N *1853:A 0.000268739
74 *1730:B *1846:A2 3.03586e-05
75 *1885:A1 *447:12 8.65905e-05
76 *2057:RESET_B *447:30 4.16007e-05
77 *2064:D *1853:A 9.50342e-06
78 *2064:D *447:30 0.000479479
79 *402:8 *1853:A 4.64565e-05
80 *404:22 *447:26 1.86953e-05
*RES
1 *1771:Y *447:12 7.275 
2 *447:12 *447:18 8.31 
3 *447:18 *447:20 1.635 
4 *447:20 *447:26 3.3375 
5 *447:26 *447:30 12.6675 
6 *447:30 *447:34 3.38 
7 *447:34 *447:36 3.21 
8 *447:36 *447:42 10.22 
9 *447:42 *1850:D 4.395 
10 *447:42 *1849:A3 8.745 
11 *447:36 *1845:A2 7.79 
12 *447:34 *1846:A2 18.815 
13 *447:30 *447:92 2 
14 *447:92 *1844:A2 1.6 
15 *447:92 *1847:A3 7.69 
16 *447:26 *1853:A 11.7825 
17 *447:20 *1866:A 5.43 
18 *447:18 *1772:A 4.395 
19 *447:12 *1884:B 12.205 
*END

*D_NET *448 0.00126773
*CONN
*I *1776:B I *D sky130_fd_sc_hd__or2_2
*I *1775:Y O *D sky130_fd_sc_hd__a21oi_2
*CAP
1 *1776:B 0.000284994
2 *1775:Y 0.000284994
3 *1776:B *1627:A 1.42807e-05
4 *1776:B *1933:A 4.40028e-05
5 *1776:B *555:31 0.000235199
6 *1776:B *555:55 2.20014e-05
7 *1632:B1 *1776:B 4.66108e-05
8 *1775:B1 *1776:B 4.89295e-05
9 *1776:A *1776:B 0.000121019
10 *2014:RESET_B *1776:B 0.000137215
11 *345:12 *1776:B 2.84864e-05
*RES
1 *1775:Y *1776:B 14.19 
*END

*D_NET *449 0.00669358
*CONN
*I *1788:A2 I *D sky130_fd_sc_hd__a221o_2
*I *1790:C_N I *D sky130_fd_sc_hd__or3b_2
*I *1831:B I *D sky130_fd_sc_hd__nor2_2
*I *1782:Y O *D sky130_fd_sc_hd__nand2b_2
*CAP
1 *1788:A2 0.00103389
2 *1790:C_N 0.00018943
3 *1831:B 0.000294331
4 *1782:Y 0
5 *449:12 0.00110786
6 *449:6 0.00165798
7 *1788:A2 *1626:C 2.02618e-05
8 *1788:A2 *1781:B 0.000121659
9 *1788:A2 *1788:A1 8.64421e-05
10 *1788:A2 *1788:B1 2.11505e-05
11 *1788:A2 *1788:B2 0.000133217
12 *1788:A2 *681:32 0
13 *1790:C_N *1720:B1_N 4.08568e-05
14 *1831:B *471:12 1.43494e-05
15 *449:12 *1980:A 0.000912346
16 *449:12 *471:12 2.05573e-05
17 *449:12 *555:80 0
18 *449:12 *681:8 0
19 *449:12 *681:19 0
20 *449:12 *681:32 0
21 *1725:A *1790:C_N 0.000156911
22 *1725:B *1790:C_N 1.64141e-05
23 *1726:B *1790:C_N 9.12857e-06
24 *1760:A1 *1788:A2 8.41384e-05
25 *1760:B1 *1788:A2 0
26 *1760:B1 *449:12 0
27 *1781:A_N *1788:A2 0.000126785
28 *1831:A *1831:B 6.64712e-05
29 *2061:D *1790:C_N 6.03497e-05
30 *2085:RESET_B *1788:A2 0
31 *2088:RESET_B *449:12 0.000191166
32 *413:8 *1790:C_N 3.33763e-05
33 *413:31 *1790:C_N 4.59022e-06
34 *445:18 *1788:A2 0.000289922
*RES
1 *1782:Y *449:6 3.6 
2 *449:6 *449:12 15.41 
3 *449:12 *1831:B 5.44 
4 *449:12 *1790:C_N 10.07 
5 *449:6 *1788:A2 22.9188 
*END

*D_NET *450 0.00321004
*CONN
*I *1841:B I *D sky130_fd_sc_hd__and2_2
*I *1784:B I *D sky130_fd_sc_hd__nor2_2
*I *1783:X O *D sky130_fd_sc_hd__a22o_2
*CAP
1 *1841:B 0.000636524
2 *1784:B 0.000284804
3 *1783:X 0.000179953
4 *450:12 0.00110128
5 *1784:B *1721:B1 1.83756e-05
6 *1784:B *2222:A 0.000194694
7 *1841:B *1722:B1 4.82919e-05
8 *1841:B *1841:A 6.56861e-05
9 *1841:B *2223:A 4.77757e-05
10 *1841:B *708:16 6.90876e-05
11 *1841:B *726:34 0
12 *1841:B *734:12 9.27255e-06
13 *450:12 *535:15 8.40105e-05
14 *1783:A2 *1841:B 0
15 *1783:A2 *450:12 0.000401256
16 *2052:RESET_B *450:12 6.90254e-05
17 *2059:RESET_B *1841:B 0
*RES
1 *1783:X *450:12 10.0962 
2 *450:12 *1784:B 6.205 
3 *450:12 *1841:B 15.875 
*END

*D_NET *451 0.00258077
*CONN
*I *1788:C1 I *D sky130_fd_sc_hd__a221o_2
*I *1784:Y O *D sky130_fd_sc_hd__nor2_2
*CAP
1 *1788:C1 0.000881257
2 *1784:Y 0.000881257
3 *1788:C1 *1626:A 0.000395637
4 *1788:C1 *1626:B 5.83477e-05
5 *1788:C1 *1788:A1 0.000199687
6 *1788:C1 *1788:B1 3.50152e-06
7 *1788:C1 *2185:A 4.44927e-05
8 *2060:D *1788:C1 0.000116594
*RES
1 *1784:Y *1788:C1 22.215 
*END

*D_NET *452 0.000196076
*CONN
*I *1787:A I *D sky130_fd_sc_hd__nor2_2
*I *1785:X O *D sky130_fd_sc_hd__o21a_2
*CAP
1 *1787:A 1.82711e-05
2 *1785:X 1.82711e-05
3 *1787:A *1787:B 8.65905e-05
4 *1787:A *705:22 2.63322e-05
5 *1787:A *738:29 4.66108e-05
*RES
1 *1785:X *1787:A 3.995 
*END

*D_NET *453 0.00102722
*CONN
*I *1787:B I *D sky130_fd_sc_hd__nor2_2
*I *1786:X O *D sky130_fd_sc_hd__o21a_2
*CAP
1 *1787:B 0.000234551
2 *1786:X 0.000234551
3 *1787:B *1707:A 0.000107684
4 *1787:B *705:12 1.72991e-05
5 *1787:B *705:16 5.21046e-05
6 *1787:B *705:22 4.35432e-05
7 *1787:B *705:57 0.000158072
8 *1787:B *738:29 6.46447e-05
9 *1787:A *1787:B 8.65905e-05
10 *402:8 *1787:B 2.8185e-05
*RES
1 *1786:X *1787:B 12.6 
*END

*D_NET *454 0.00419708
*CONN
*I *1789:A2 I *D sky130_fd_sc_hd__o21bai_2
*I *1788:B1 I *D sky130_fd_sc_hd__a221o_2
*I *1787:Y O *D sky130_fd_sc_hd__nor2_2
*CAP
1 *1789:A2 0
2 *1788:B1 0.000759161
3 *1787:Y 0.000325058
4 *454:14 0.00108422
5 *1788:B1 *1773:A 8.35106e-05
6 *1788:B1 *1788:A1 2.86975e-05
7 *1788:B1 *2086:CLK 0.000135134
8 *1788:B1 *2141:A 0
9 *1788:B1 *535:43 0
10 *1788:B1 *545:10 8.51837e-05
11 *1788:B1 *545:45 7.4549e-05
12 *1788:B1 *733:16 0
13 *1788:B1 *733:20 0.000155227
14 *454:14 *1853:B 0
15 *454:14 *2294:A 0
16 *454:14 *677:27 6.03407e-05
17 *454:14 *705:10 5.98004e-06
18 *454:14 *705:12 8.03581e-05
19 *454:14 *705:16 2.3036e-05
20 *1713:B1 *454:14 0.000419392
21 *1788:A2 *1788:B1 2.11505e-05
22 *1788:C1 *1788:B1 3.50152e-06
23 *1789:B1_N *454:14 0
24 *2012:D *1788:B1 4.67415e-05
25 *2089:D *1788:B1 0.00010141
26 *2091:D *1788:B1 0.000215732
27 *329:10 *1788:B1 4.11194e-05
28 *329:12 *1788:B1 4.18603e-06
29 *404:16 *454:14 2.96426e-05
30 *413:41 *1788:B1 0
31 *413:41 *454:14 0.000301719
32 *445:18 *1788:B1 0.000112029
*RES
1 *1787:Y *454:14 13.79 
2 *454:14 *1788:B1 21.47 
3 *454:14 *1789:A2 1.6 
*END

*D_NET *455 0.0017836
*CONN
*I *1794:A2 I *D sky130_fd_sc_hd__a211o_2
*I *1793:Y O *D sky130_fd_sc_hd__nand2_2
*CAP
1 *1794:A2 0.000433285
2 *1793:Y 0.000433285
3 *1794:A2 *1717:B 8.8266e-05
4 *1794:A2 *1741:B1 0.000139245
5 *1794:A2 *1793:A 8.87364e-05
6 *1794:A2 *556:88 0.000468933
7 *1793:B *1794:A2 0
8 *1794:B1 *1794:A2 0.000131854
*RES
1 *1793:Y *1794:A2 15.885 
*END

*D_NET *456 0.000494971
*CONN
*I *1797:B1 I *D sky130_fd_sc_hd__a211o_2
*I *1796:X O *D sky130_fd_sc_hd__and3_2
*CAP
1 *1797:B1 0.000104793
2 *1796:X 0.000104793
3 *1797:B1 *1796:A 4.92062e-05
4 *1797:B1 *1796:C 1.19928e-05
5 *1797:B1 *1797:A1 1.85674e-05
6 *1797:B1 *556:31 9.52646e-05
7 *1755:B1 *1797:B1 8.35068e-05
8 *1770:A2_N *1797:B1 2.68464e-05
*RES
1 *1796:X *1797:B1 6.095 
*END

*D_NET *457 0.00130988
*CONN
*I *2220:A I *D sky130_fd_sc_hd__dlygate4sd3_1
*I *1803:Y O *D sky130_fd_sc_hd__a21oi_2
*CAP
1 *2220:A 0.000472339
2 *1803:Y 0.000472339
3 *2220:A *1802:A 0
4 *2220:A *1802:B 0.000101118
5 *2220:A *1913:B1 0
6 *2220:A *1915:A1 0
7 *2220:A *2105:CLK 0
8 *2220:A *2106:CLK 5.50989e-05
9 *2220:A *535:313 8.91047e-05
10 *2220:A *548:58 8.52972e-05
11 *2105:D *2220:A 0
12 *2105:RESET_B *2220:A 3.45818e-05
*RES
1 *1803:Y *2220:A 15.945 
*END

*D_NET *458 0.000209031
*CONN
*I *1809:B I *D sky130_fd_sc_hd__nor3_2
*I *1807:Y O *D sky130_fd_sc_hd__a21oi_2
*CAP
1 *1809:B 0.000104515
2 *1807:Y 0.000104515
*RES
1 *1807:Y *1809:B 8.58 
*END

*D_NET *459 0.00387825
*CONN
*I *1814:A3 I *D sky130_fd_sc_hd__a31oi_2
*I *1815:D I *D sky130_fd_sc_hd__and4_2
*I *1810:B I *D sky130_fd_sc_hd__nand2_2
*I *1811:B I *D sky130_fd_sc_hd__or2_2
*I *1809:C I *D sky130_fd_sc_hd__nor3_2
*I *1808:X O *D sky130_fd_sc_hd__and3_2
*CAP
1 *1814:A3 0
2 *1815:D 0.000213582
3 *1810:B 0
4 *1811:B 0.000267377
5 *1809:C 0.000249253
6 *1808:X 0.000178043
7 *459:58 0.000541376
8 *459:43 0.000425661
9 *459:10 0.000596807
10 *1809:C *1809:A 0.000194302
11 *1809:C *1928:B 4.7072e-06
12 *1811:B *1809:A 2.85623e-05
13 *1811:B *1813:B 8.34904e-06
14 *1811:B *1928:B 0
15 *1811:B *2010:A 7.55131e-05
16 *1811:B *751:8 8.19541e-05
17 *1815:D *1658:B 0
18 *1815:D *540:54 6.6564e-05
19 *1815:D *752:84 4.18603e-06
20 *1815:D *754:48 0.000162854
21 *459:10 *1809:A 9.10613e-05
22 *459:10 *751:8 5.00317e-05
23 *459:43 *1808:B 4.00541e-06
24 *459:43 *1810:A 2.65633e-05
25 *459:43 *1812:A 1.70733e-05
26 *459:43 *1813:A 2.30292e-05
27 *459:58 *1812:A 5.30691e-05
28 *459:58 *1813:A 0.000251485
29 *459:58 *2111:CLK 0
30 *459:58 *540:54 0
31 *459:58 *752:84 0.000144113
32 *1808:C *459:43 3.5678e-06
33 *2112:D *459:58 6.44134e-05
34 *2113:D *1815:D 2.97004e-06
35 *2121:SET_B *1811:B 4.77807e-05
*RES
1 *1808:X *459:10 5.175 
2 *459:10 *1809:C 7.515 
3 *459:10 *1811:B 8.685 
4 *1808:X *459:43 3.805 
5 *459:43 *1810:B 1.6 
6 *459:43 *459:58 9.86 
7 *459:58 *1815:D 7.83 
8 *459:58 *1814:A3 3.6 
*END

*D_NET *460 0.00047763
*CONN
*I *1812:A I *D sky130_fd_sc_hd__and2_2
*I *1813:B I *D sky130_fd_sc_hd__xnor2_2
*I *1810:Y O *D sky130_fd_sc_hd__nand2_2
*CAP
1 *1812:A 6.1692e-05
2 *1813:B 6.32977e-05
3 *1810:Y 0.00012499
4 *1813:B *1809:A 7.33283e-05
5 *1813:B *1813:A 7.58309e-05
6 *1811:B *1813:B 8.34904e-06
7 *459:43 *1812:A 1.70733e-05
8 *459:58 *1812:A 5.30691e-05
*RES
1 *1810:Y *1813:B 9.09 
2 *1810:Y *1812:A 4.355 
*END

*D_NET *461 0.000601335
*CONN
*I *1812:B I *D sky130_fd_sc_hd__and2_2
*I *1811:X O *D sky130_fd_sc_hd__or2_2
*CAP
1 *1812:B 0.000149208
2 *1811:X 0.000149208
3 *1812:B *1811:A 5.01076e-05
4 *1812:B *2111:CLK 0.000155489
5 *1812:B *752:12 3.68942e-05
6 *2112:D *1812:B 6.04287e-05
*RES
1 *1811:X *1812:B 10.875 
*END

*D_NET *462 0.000890099
*CONN
*I *1816:B I *D sky130_fd_sc_hd__nor3_2
*I *1814:Y O *D sky130_fd_sc_hd__a31oi_2
*CAP
1 *1816:B 0.000154644
2 *1814:Y 0.000154644
3 *1816:B *1658:B 0.000135676
4 *1816:B *1658:C_N 0.000231571
5 *1816:B *1814:A1 8.53113e-06
6 *1816:B *1816:C 4.82919e-05
7 *1816:B *754:23 0.000110683
8 *1658:A *1816:B 4.60584e-05
*RES
1 *1814:Y *1816:B 12.27 
*END

*D_NET *463 0.0018464
*CONN
*I *1816:C I *D sky130_fd_sc_hd__nor3_2
*I *1817:B I *D sky130_fd_sc_hd__and2_2
*I *1819:A2 I *D sky130_fd_sc_hd__o21a_2
*I *1815:X O *D sky130_fd_sc_hd__and4_2
*CAP
1 *1816:C 8.7736e-05
2 *1817:B 0.000223916
3 *1819:A2 3.08385e-05
4 *1815:X 0.000106023
5 *463:12 0.000380422
6 *463:8 0.000319426
7 *1816:C *1816:A 7.35813e-05
8 *1817:B *1817:A 8.65961e-05
9 *1817:B *1819:A1 4.99619e-05
10 *1817:B *464:10 0.000117444
11 *463:8 *1658:B 0
12 *1658:A *1816:C 8.40269e-05
13 *1816:B *1816:C 4.82919e-05
14 *2113:D *463:8 0
15 *365:12 *463:12 0
16 *365:20 *1816:C 0.000238137
17 *366:10 *463:8 0
18 *366:10 *463:12 0
19 *366:23 *463:8 0
*RES
1 *1815:X *463:8 5.235 
2 *463:8 *463:12 3.635 
3 *463:12 *1819:A2 2.05 
4 *463:12 *1817:B 6.22 
5 *463:8 *1816:C 6.465 
*END

*D_NET *464 0.00379179
*CONN
*I *1822:A2 I *D sky130_fd_sc_hd__a21oi_2
*I *1820:B I *D sky130_fd_sc_hd__xor2_2
*I *1818:B I *D sky130_fd_sc_hd__nor2_2
*I *1821:C I *D sky130_fd_sc_hd__and3_2
*I *1817:X O *D sky130_fd_sc_hd__and2_2
*CAP
1 *1822:A2 0
2 *1820:B 0.000100369
3 *1818:B 0.000104257
4 *1821:C 0.000227092
5 *1817:X 0.000471588
6 *464:29 0.000204627
7 *464:16 0.000297802
8 *464:10 0.000542298
9 *1821:C *1823:A 8.65961e-05
10 *1821:C *2142:A 0.000341194
11 *1821:C *2160:A 0.000211465
12 *1821:C *2190:A 0.00020048
13 *1821:C *466:8 8.73389e-06
14 *1821:C *539:35 0.000230915
15 *464:10 *1817:A 5.05521e-05
16 *464:10 *1819:A1 5.83121e-06
17 *464:10 *2142:A 0.000126635
18 *464:10 *755:19 0
19 *464:16 *2142:A 0.000154711
20 *464:16 *2160:A 3.39981e-05
21 *464:16 *2190:A 0.000106357
22 *1817:B *464:10 0.000117444
23 *1818:A *1818:B 4.12321e-05
24 *1818:A *464:10 8.05681e-05
25 *365:12 *464:10 0
26 *367:20 *464:10 4.7043e-05
*RES
1 *1817:X *464:10 11.52 
2 *464:10 *464:16 2.445 
3 *464:16 *1821:C 11.475 
4 *464:16 *464:29 2 
5 *464:29 *1818:B 3.46 
6 *464:29 *1820:B 1.4325 
7 *464:10 *1822:A2 3.6 
*END

*D_NET *465 0.000999054
*CONN
*I *1819:B1 I *D sky130_fd_sc_hd__o21a_2
*I *1818:Y O *D sky130_fd_sc_hd__nor2_2
*CAP
1 *1819:B1 0.000157728
2 *1818:Y 0.000157728
3 *1818:A *1819:B1 0.000341802
4 *2114:D *1819:B1 7.89767e-05
5 *365:12 *1819:B1 0
6 *366:10 *1819:B1 0.000130723
7 *367:20 *1819:B1 0.000132096
*RES
1 *1818:Y *1819:B1 12.915 
*END

*D_NET *466 0.0043378
*CONN
*I *1825:C I *D sky130_fd_sc_hd__and3_2
*I *1823:A I *D sky130_fd_sc_hd__nor2_2
*I *1824:B I *D sky130_fd_sc_hd__xor2_2
*I *1826:A2 I *D sky130_fd_sc_hd__a21oi_2
*I *1821:X O *D sky130_fd_sc_hd__and3_2
*CAP
1 *1825:C 0.000211679
2 *1823:A 0.000112555
3 *1824:B 0.00044727
4 *1826:A2 9.91143e-05
5 *1821:X 0
6 *466:8 0.000992324
7 *466:4 0.000770174
8 *1823:A *1821:A 4.99619e-05
9 *1823:A *1821:B 1.61831e-05
10 *1824:B *2251:A 0
11 *1824:B *685:26 0.000473374
12 *1825:C *1825:B 0.000171509
13 *1825:C *2114:CLK 0.000112799
14 *1825:C *685:26 0
15 *1825:C *685:28 0
16 *1825:C *685:41 0
17 *1825:C *743:32 8.57257e-05
18 *1826:A2 *1826:A1 2.34345e-05
19 *1826:A2 *1827:B 0.000112123
20 *1826:A2 *2251:A 0
21 *1826:A2 *685:26 0.000226147
22 *466:8 *1827:B 1.56428e-05
23 *466:8 *1992:A 3.45679e-05
24 *466:8 *2251:A 2.75229e-05
25 *466:8 *684:40 8.03844e-05
26 *466:8 *688:27 0.000108663
27 *1821:C *1823:A 8.65961e-05
28 *1821:C *466:8 8.73389e-06
29 *2114:RESET_B *1825:C 1.82476e-05
30 *2116:D *1823:A 5.30673e-05
*RES
1 *1821:X *466:4 1.6 
2 *466:4 *466:8 10.04 
3 *466:8 *1826:A2 6.255 
4 *466:8 *1824:B 7.715 
5 *466:4 *1823:A 4.3 
6 *1824:B *1825:C 11.06 
*END

*D_NET *467 0.000955299
*CONN
*I *2190:A I *D sky130_fd_sc_hd__dlygate4sd3_1
*I *1822:Y O *D sky130_fd_sc_hd__a21oi_2
*CAP
1 *2190:A 0.000156831
2 *1822:Y 0.000156831
3 *2190:A *1822:A1 1.08758e-05
4 *2190:A *2160:A 0.000306457
5 *2190:A *535:290 1.74678e-05
6 *1821:C *2190:A 0.00020048
7 *464:16 *2190:A 0.000106357
*RES
1 *1822:Y *2190:A 11.67 
*END

*D_NET *468 0.00401705
*CONN
*I *1828:B I *D sky130_fd_sc_hd__nand2_2
*I *1827:A I *D sky130_fd_sc_hd__nor2_2
*I *1829:B I *D sky130_fd_sc_hd__xor2_2
*I *1825:X O *D sky130_fd_sc_hd__and3_2
*CAP
1 *1828:B 0.00025288
2 *1827:A 0
3 *1829:B 0.000446663
4 *1825:X 0.000737981
5 *468:14 0.000931765
6 *1828:B *1894:B1_N 8.57024e-05
7 *1828:B *2158:A 4.80285e-05
8 *1828:B *548:12 0.000182401
9 *1828:B *682:34 0
10 *1828:B *688:27 4.70477e-05
11 *1829:B *1829:A 8.64421e-05
12 *1829:B *688:27 0.000505834
13 *468:14 *1824:A 0.000115614
14 *468:14 *685:26 0.000219647
15 *468:14 *685:28 0.000123218
16 *468:14 *685:41 5.3673e-05
17 *468:14 *687:18 1.7635e-05
18 *468:14 *688:27 2.67222e-05
19 *2118:D *468:14 0.000135792
*RES
1 *1825:X *468:14 19.37 
2 *468:14 *1829:B 5.2575 
3 *468:14 *1827:A 1.6 
4 *1829:B *1828:B 10.6775 
*END

*D_NET *469 0.000648833
*CONN
*I *1827:B I *D sky130_fd_sc_hd__nor2_2
*I *1826:Y O *D sky130_fd_sc_hd__a21oi_2
*CAP
1 *1827:B 0.000141169
2 *1826:Y 0.000141169
3 *1827:B *1826:A1 7.06865e-05
4 *1827:B *688:27 0.000119756
5 *1631:C *1827:B 4.82863e-05
6 *1826:A2 *1827:B 0.000112123
7 *466:8 *1827:B 1.56428e-05
*RES
1 *1826:Y *1827:B 10.17 
*END

*D_NET *470 0.00146584
*CONN
*I *1830:B I *D sky130_fd_sc_hd__xnor2_2
*I *1828:Y O *D sky130_fd_sc_hd__nand2_2
*CAP
1 *1830:B 0.000417586
2 *1828:Y 0.000417586
3 *1830:B *1803:B1 8.53011e-05
4 *1830:B *1828:A 0.000128537
5 *1830:B *688:60 0.000416825
6 *2120:RESET_B *1830:B 0
*RES
1 *1828:Y *1830:B 15.12 
*END

*D_NET *471 0.00362797
*CONN
*I *1832:B I *D sky130_fd_sc_hd__nor2_2
*I *1833:B I *D sky130_fd_sc_hd__nor2_2
*I *1831:Y O *D sky130_fd_sc_hd__nor2_2
*CAP
1 *1832:B 1.96049e-05
2 *1833:B 0.000144643
3 *1831:Y 0.00081125
4 *471:12 0.000975498
5 *1832:B *731:68 6.63221e-05
6 *1833:B *731:12 8.41384e-05
7 *1833:B *731:68 2.10905e-05
8 *471:12 *2157:A 0
9 *471:12 *681:8 0.00040124
10 *1831:A *471:12 0.000193801
11 *1831:B *471:12 1.43494e-05
12 *2099:D *471:12 5.18362e-05
13 *2100:D *1833:B 0.000101008
14 *2100:D *471:12 0.000479933
15 *411:16 *1833:B 0
16 *412:14 *1832:B 0.000122821
17 *412:14 *1833:B 0.000119873
18 *449:12 *471:12 2.05573e-05
*RES
1 *1831:Y *471:12 20 
2 *471:12 *1833:B 9.14 
3 *471:12 *1832:B 2.74 
*END

*D_NET *472 0.0007554
*CONN
*I *1835:C1 I *D sky130_fd_sc_hd__a311o_2
*I *1834:Y O *D sky130_fd_sc_hd__nor3_2
*CAP
1 *1835:C1 0.000129668
2 *1834:Y 0.000129668
3 *1835:C1 *1834:B 1.16578e-05
4 *1835:C1 *1835:A3 4.66108e-05
5 *1835:C1 *1836:A 0.00022786
6 *1835:C1 *1836:C 4.99619e-05
7 *1835:C1 *750:35 8.1087e-05
8 *1835:C1 *751:14 1.19928e-05
9 *1835:C1 *751:16 1.34503e-05
10 *1835:B1 *1835:C1 5.3444e-05
*RES
1 *1834:Y *1835:C1 6.77 
*END

*D_NET *473 0.000359894
*CONN
*I *1836:C I *D sky130_fd_sc_hd__or4b_2
*I *1835:X O *D sky130_fd_sc_hd__a311o_2
*CAP
1 *1836:C 0.000123528
2 *1835:X 0.000123528
3 *1836:C *1836:A 6.28765e-05
4 *1835:C1 *1836:C 4.99619e-05
*RES
1 *1835:X *1836:C 9.03 
*END

*D_NET *474 0.000237745
*CONN
*I *1840:B I *D sky130_fd_sc_hd__or4_2
*I *1837:X O *D sky130_fd_sc_hd__or4bb_2
*CAP
1 *1840:B 9.36008e-05
2 *1837:X 9.36008e-05
3 *1840:B *1837:C_N 5.05437e-05
*RES
1 *1837:X *1840:B 4.34 
*END

*D_NET *475 0.00115015
*CONN
*I *1840:C I *D sky130_fd_sc_hd__or4_2
*I *1838:X O *D sky130_fd_sc_hd__or4bb_2
*CAP
1 *1840:C 0.000256818
2 *1838:X 0.000256818
3 *1840:C *1675:A 0
4 *1840:C *1676:A 0.000197885
5 *1840:C *1837:C_N 9.86689e-05
6 *1840:C *757:14 0.00011577
7 *1840:C *758:22 4.92861e-05
8 *1648:B *1840:C 4.91189e-05
9 *1679:B *1840:C 0.00012578
10 *1840:A *1840:C 0
*RES
1 *1838:X *1840:C 13.935 
*END

*D_NET *476 0.000351889
*CONN
*I *1840:D I *D sky130_fd_sc_hd__or4_2
*I *1839:Y O *D sky130_fd_sc_hd__nand3b_2
*CAP
1 *1840:D 0.000115363
2 *1839:Y 0.000115363
3 *1840:D *765:25 3.45679e-05
4 *1840:D *766:28 8.65961e-05
5 *1648:B *1840:D 0
6 *1676:C *1840:D 0
*RES
1 *1839:Y *1840:D 9.375 
*END

*D_NET *477 0.000571804
*CONN
*I *1845:B1 I *D sky130_fd_sc_hd__o21a_2
*I *1844:Y O *D sky130_fd_sc_hd__a21oi_2
*CAP
1 *1845:B1 0.000216549
2 *1844:Y 0.000216549
3 *1845:B1 *1844:B1 2.05571e-05
4 *1845:B1 *1847:A1 4.99619e-05
5 *1845:B1 *659:38 4.82919e-05
6 *1845:B1 *662:14 0
7 *1845:B1 *678:28 4.57718e-06
8 *1845:A2 *1845:B1 1.53179e-05
9 *447:30 *1845:B1 0
*RES
1 *1844:Y *1845:B1 10.32 
*END

*D_NET *478 0.00569201
*CONN
*I *1848:A I *D sky130_fd_sc_hd__nor2_2
*I *1846:Y O *D sky130_fd_sc_hd__a21oi_2
*CAP
1 *1848:A 0.00187892
2 *1846:Y 0.00187892
3 *1848:A *1732:B1 6.54361e-06
4 *1848:A *1846:A1 2.10214e-05
5 *1848:A *1846:B1 4.82863e-05
6 *1848:A *1849:A1 2.49909e-05
7 *1848:A *1849:B1 0.000136435
8 *1848:A *1855:B1 3.97492e-05
9 *1848:A *1953:A 2.69217e-05
10 *1848:A *2018:CLK 0.000470757
11 *1848:A *2156:A 0.000128365
12 *1848:A *2191:A 9.88962e-05
13 *1848:A *662:14 8.30853e-06
14 *1848:A *662:45 6.05336e-05
15 *1848:A *723:8 6.30288e-05
16 *1732:A1 *1848:A 0.000132849
17 *1732:A2 *1848:A 0.000139655
18 *1733:B *1848:A 8.35106e-05
19 *2018:D *1848:A 6.88441e-05
20 *2057:D *1848:A 0.000375467
*RES
1 *1846:Y *1848:A 42.8 
*END

*D_NET *479 0.00416242
*CONN
*I *1848:B I *D sky130_fd_sc_hd__nor2_2
*I *1847:X O *D sky130_fd_sc_hd__a31o_2
*CAP
1 *1848:B 0.001376
2 *1847:X 0.001376
3 *1848:B *1732:B1 0
4 *1848:B *1847:B1 0
5 *1848:B *1855:A2 0.000869932
6 *1848:B *2018:CLK 0.000211818
7 *1848:B *2294:A 8.3178e-05
8 *1848:B *536:20 2.63208e-06
9 *1848:B *659:14 8.41384e-05
10 *2018:D *1848:B 0.000128871
11 *2020:D *1848:B 2.98587e-05
*RES
1 *1847:X *1848:B 28.47 
*END

*D_NET *480 0.00141298
*CONN
*I *1851:B I *D sky130_fd_sc_hd__nor3_2
*I *1849:Y O *D sky130_fd_sc_hd__a31oi_2
*CAP
1 *1851:B 0.000314918
2 *1849:Y 0.000314918
3 *1851:B *2191:A 0.000383685
4 *1851:B *2290:A 4.77807e-05
5 *1851:B *536:12 0.000169319
6 *1851:B *536:20 0.000134756
7 *2019:D *1851:B 4.76051e-05
*RES
1 *1849:Y *1851:B 14.43 
*END

*D_NET *481 0.00508407
*CONN
*I *1851:C I *D sky130_fd_sc_hd__nor3_2
*I *1855:A2 I *D sky130_fd_sc_hd__o21a_2
*I *1850:X O *D sky130_fd_sc_hd__and4_2
*CAP
1 *1851:C 0.000440143
2 *1855:A2 0.000296081
3 *1850:X 0.000673368
4 *481:14 0.00140959
5 *1851:C *1855:A1 0.000122821
6 *1855:A2 *1946:A 0.000342792
7 *1855:A2 *2156:A 6.92161e-05
8 *1855:A2 *536:20 0.000104708
9 *1855:A2 *679:10 9.75063e-05
10 *481:14 *1846:B1 0.000203178
11 *481:14 *1850:B 9.10429e-05
12 *481:14 *1850:C 1.06624e-05
13 *481:14 *659:44 7.68414e-06
14 *481:14 *662:14 0
15 *481:14 *662:29 0.000137881
16 *1848:B *1855:A2 0.000869932
17 *1850:D *481:14 4.31222e-06
18 *2017:D *1851:C 1.64141e-05
19 *2017:D *1855:A2 1.43717e-05
20 *2017:D *481:14 9.70237e-05
21 *2019:D *1851:C 4.93336e-05
22 *2020:D *1855:A2 5.83121e-06
23 *2057:RESET_B *1855:A2 2.01737e-05
*RES
1 *1850:X *481:14 12.795 
2 *481:14 *1855:A2 14.52 
3 *481:14 *1851:C 10.71 
*END

*D_NET *482 0.0062246
*CONN
*I *1880:A I *D sky130_fd_sc_hd__nand4_2
*I *1882:A I *D sky130_fd_sc_hd__and4_2
*I *1853:B I *D sky130_fd_sc_hd__and2_2
*I *1866:B I *D sky130_fd_sc_hd__and3_2
*I *1852:X O *D sky130_fd_sc_hd__and4_2
*CAP
1 *1880:A 0.000184614
2 *1882:A 0.000159403
3 *1853:B 0.000500645
4 *1866:B 0
5 *1852:X 0.000167066
6 *482:34 0.000888549
7 *482:12 0.00090445
8 *482:8 0.0011154
9 *1853:B *1858:A2 8.69728e-05
10 *1853:B *1867:C 8.65905e-05
11 *1853:B *2294:A 0.000134242
12 *1853:B *492:43 0.0001855
13 *1880:A *2292:A 2.16878e-05
14 *1880:A *2299:A 8.53011e-05
15 *1880:A *495:26 0
16 *1880:A *686:37 8.53011e-05
17 *1880:A *697:14 1.48206e-05
18 *1882:A *1872:B 4.40325e-06
19 *1882:A *495:26 0.000161529
20 *482:8 *1865:D 0
21 *482:8 *1867:C 4.43871e-06
22 *482:8 *2286:A 0.000116165
23 *482:8 *536:8 0
24 *482:12 *1867:C 0.000135094
25 *482:12 *667:12 0.000120655
26 *482:12 *667:55 0.000114024
27 *482:34 *1863:A1 0
28 *482:34 *1865:D 2.31596e-05
29 *482:34 *1867:C 4.6656e-05
30 *482:34 *2140:A 0
31 *482:34 *2292:A 0.0001912
32 *482:34 *495:26 0
33 *482:34 *535:86 0
34 *482:34 *536:8 0
35 *482:34 *679:79 0.00028733
36 *1853:A *1853:B 0.000118156
37 *2023:D *482:34 0
38 *402:8 *1853:B 6.25733e-05
39 *404:16 *1853:B 0.000202484
40 *404:22 *1853:B 1.61831e-05
41 *454:14 *1853:B 0
*RES
1 *1852:X *482:8 6.51 
2 *482:8 *482:12 7.28 
3 *482:12 *1866:B 1.6 
4 *482:12 *1853:B 14 
5 *482:8 *482:34 10.305 
6 *482:34 *1882:A 5.79 
7 *482:34 *1880:A 7.305 
*END

*D_NET *483 0.00812562
*CONN
*I *1857:A2 I *D sky130_fd_sc_hd__o21a_2
*I *1859:C I *D sky130_fd_sc_hd__and3_2
*I *1861:D I *D sky130_fd_sc_hd__and4_2
*I *1854:B I *D sky130_fd_sc_hd__nor2_2
*I *1856:A2 I *D sky130_fd_sc_hd__a21oi_2
*I *1858:A2 I *D sky130_fd_sc_hd__a21oi_2
*I *1853:X O *D sky130_fd_sc_hd__and2_2
*CAP
1 *1857:A2 0.000153605
2 *1859:C 0.00016544
3 *1861:D 0
4 *1854:B 0.000323688
5 *1856:A2 7.68618e-05
6 *1858:A2 1.1185e-05
7 *1853:X 0.000356531
8 *483:61 0.000537131
9 *483:39 0.000913631
10 *483:24 0.000805307
11 *483:18 0.000701936
12 *1854:B *488:10 8.03105e-06
13 *1856:A2 *1856:B1 0
14 *1856:A2 *1857:B1 0
15 *1856:A2 *659:14 2.97004e-06
16 *1857:A2 *1857:A1 7.47608e-05
17 *1857:A2 *1886:B 1.47256e-05
18 *1857:A2 *1978:A 8.23457e-05
19 *1857:A2 *492:43 3.18219e-05
20 *1859:C *1859:A 0.000160641
21 *1859:C *487:8 2.36616e-05
22 *483:18 *1858:A1 8.34281e-06
23 *483:18 *1860:B 0.000225586
24 *483:24 *1857:B1 0
25 *483:24 *1860:B 0.000122331
26 *483:39 *1858:B1 5.05437e-05
27 *483:39 *1860:B 8.3802e-05
28 *483:39 *1861:C 0.000461017
29 *483:39 *667:18 0.000263421
30 *483:61 *492:43 0.000144832
31 *483:61 *675:16 1.88904e-05
32 pcRegister[1] *1854:B 0.000131441
33 pcRegister[3] *483:39 0.000236123
34 pcRegister[4] *1854:B 0.000459657
35 pcRegister[6] *1854:B 0
36 *1853:B *1858:A2 8.69728e-05
37 *2089:RESET_B *1857:A2 0.000119756
38 *402:8 *1858:A2 8.8266e-05
39 *402:8 *483:18 0.000232105
40 *404:22 *483:61 0.000136877
41 *447:18 *1857:A2 8.35683e-05
42 *447:18 *483:61 0.000247574
43 *447:20 *483:61 0.000137578
44 *447:26 *483:24 7.28752e-05
45 *447:26 *483:61 0.000113565
46 *447:30 *1856:A2 0.000138273
47 *447:30 *483:24 1.79536e-05
*RES
1 *1853:X *1858:A2 3.995 
2 *1853:X *483:18 6.19 
3 *483:18 *483:24 4.265 
4 *483:24 *1856:A2 5.235 
5 *483:24 *483:39 13.85 
6 *483:39 *1854:B 12.545 
7 *483:39 *1861:D 1.6 
8 *483:18 *483:61 8.225 
9 *483:61 *1859:C 5.775 
10 *483:61 *1857:A2 7.26 
*END

*D_NET *484 0.00444171
*CONN
*I *1855:B1 I *D sky130_fd_sc_hd__o21a_2
*I *1854:Y O *D sky130_fd_sc_hd__nor2_2
*CAP
1 *1855:B1 0.00174247
2 *1854:Y 0.00174247
3 *1855:B1 *1854:A 0.000254152
4 *1855:B1 *2064:CLK 3.33839e-05
5 *1855:B1 *2155:A 6.62684e-05
6 *1855:B1 *677:10 7.5589e-05
7 *1855:B1 *738:10 5.94591e-05
8 pcRegister[4] *1855:B1 9.77048e-06
9 *1848:A *1855:B1 3.97492e-05
10 *2019:D *1855:B1 1.43717e-05
11 *2020:D *1855:B1 0.000186098
12 *2064:D *1855:B1 2.7549e-05
13 *2064:RESET_B *1855:B1 0.000190374
*RES
1 *1854:Y *1855:B1 30.285 
*END

*D_NET *485 0.00181618
*CONN
*I *1857:B1 I *D sky130_fd_sc_hd__o21a_2
*I *1856:Y O *D sky130_fd_sc_hd__a21oi_2
*CAP
1 *1857:B1 0.000351062
2 *1856:Y 0.000351062
3 *1857:B1 *1856:B1 0.000104457
4 *1857:B1 *1863:B1 0.000371515
5 *1857:B1 *1866:C 8.50605e-05
6 *1857:B1 *491:23 0.000233231
7 *1857:B1 *535:106 3.63701e-06
8 *1857:B1 *667:55 0
9 *1857:B1 *677:50 0.000316159
10 *1856:A2 *1857:B1 0
11 *447:26 *1857:B1 0
12 *483:24 *1857:B1 0
*RES
1 *1856:Y *1857:B1 16.74 
*END

*D_NET *486 0.00276075
*CONN
*I *1860:B I *D sky130_fd_sc_hd__nor3_2
*I *1858:Y O *D sky130_fd_sc_hd__a21oi_2
*CAP
1 *1860:B 0.000642379
2 *1858:Y 0.000642379
3 *1860:B *1858:A1 5.83121e-06
4 *1860:B *1858:B1 0.000387003
5 *1860:B *1861:A 0
6 *1860:B *1867:A 2.85837e-05
7 *1860:B *667:18 0.00061306
8 *1711:B1_N *1860:B 9.80032e-06
9 *483:18 *1860:B 0.000225586
10 *483:24 *1860:B 0.000122331
11 *483:39 *1860:B 8.3802e-05
*RES
1 *1858:Y *1860:B 20.58 
*END

*D_NET *487 0.00486252
*CONN
*I *1863:A2 I *D sky130_fd_sc_hd__o21a_2
*I *1860:C I *D sky130_fd_sc_hd__nor3_2
*I *1859:X O *D sky130_fd_sc_hd__and3_2
*CAP
1 *1863:A2 0.000252362
2 *1860:C 0.000631383
3 *1859:X 0.000181923
4 *487:8 0.00106567
5 *1860:C *1866:C 8.43862e-05
6 *1860:C *1867:A 1.33205e-05
7 *1860:C *1867:C 0.000746861
8 *1860:C *2022:CLK 4.5102e-05
9 *1860:C *492:43 5.83121e-06
10 *1860:C *667:55 0.00031209
11 *1863:A2 *495:26 0.000107121
12 *1863:A2 *535:106 9.63008e-05
13 *1863:A2 *667:55 6.52111e-05
14 *487:8 *1859:A 8.67385e-05
15 *487:8 *666:6 0.000160635
16 *1859:C *487:8 2.36616e-05
17 *1866:A *1860:C 0.00016063
18 *2022:D *1860:C 9.80943e-06
19 *2023:D *1863:A2 0.000158965
20 *2089:RESET_B *487:8 1.83756e-05
21 *447:18 *1860:C 0.000149766
22 *447:18 *1863:A2 0.000328079
23 *447:20 *1860:C 0.000129047
24 *447:26 *1860:C 2.92496e-05
*RES
1 *1859:X *487:8 7.155 
2 *487:8 *1860:C 16.995 
3 *487:8 *1863:A2 10.41 
*END

*D_NET *488 0.00250345
*CONN
*I *1864:B I *D sky130_fd_sc_hd__nor2_2
*I *1862:B I *D sky130_fd_sc_hd__nor2_2
*I *1861:X O *D sky130_fd_sc_hd__and4_2
*CAP
1 *1864:B 0.000192711
2 *1862:B 0.000168469
3 *1861:X 0.000272639
4 *488:10 0.000633818
5 *1862:B *668:12 0.000196568
6 *1862:B *668:31 3.57349e-05
7 *1864:B *1864:A 0.000143266
8 *1864:B *1867:B 0.000491253
9 *1864:B *2296:A 0
10 *1864:B *668:12 5.39718e-05
11 *488:10 *1861:A 0
12 *488:10 *1867:B 0.000210846
13 *488:10 *2296:A 0
14 pcRegister[4] *488:10 2.93818e-05
15 pcRegister[7] *488:10 3.98852e-05
16 pcRegister[8] *1864:B 2.68721e-05
17 *1854:B *488:10 8.03105e-06
18 *2024:D *1864:B 0
*RES
1 *1861:X *488:10 8.415 
2 *488:10 *1862:B 6.825 
3 *488:10 *1864:B 9.825 
*END

*D_NET *489 0.00326035
*CONN
*I *1863:B1 I *D sky130_fd_sc_hd__o21a_2
*I *1862:Y O *D sky130_fd_sc_hd__nor2_2
*CAP
1 *1863:B1 0.00122813
2 *1862:Y 0.00122813
3 *1863:B1 *1860:A 4.36369e-05
4 *1863:B1 *1867:A 0
5 *1863:B1 *491:23 9.15582e-05
6 *1863:B1 *535:106 0.000297377
7 *1863:B1 *677:31 0
8 *1857:B1 *1863:B1 0.000371515
*RES
1 *1862:Y *1863:B1 16.4764 
*END

*D_NET *490 0.00184095
*CONN
*I *1867:B I *D sky130_fd_sc_hd__nor3_2
*I *1864:Y O *D sky130_fd_sc_hd__nor2_2
*CAP
1 *1867:B 0.000338337
2 *1864:Y 0.000338337
3 *1867:B *1867:A 6.43323e-05
4 *1867:B *1867:C 5.12969e-06
5 pcRegister[11] *1867:B 3.92732e-05
6 pcRegister[7] *1867:B 0.000273284
7 pcRegister[8] *1867:B 4.13879e-05
8 pcRegister[9] *1867:B 3.87744e-05
9 *1864:B *1867:B 0.000491253
10 *488:10 *1867:B 0.000210846
*RES
1 *1864:Y *1867:B 17.745 
*END

*D_NET *491 0.00385785
*CONN
*I *1880:B I *D sky130_fd_sc_hd__nand4_2
*I *1882:B I *D sky130_fd_sc_hd__and4_2
*I *1866:C I *D sky130_fd_sc_hd__and3_2
*I *1865:X O *D sky130_fd_sc_hd__and4_2
*CAP
1 *1880:B 0.000279028
2 *1882:B 7.41383e-05
3 *1866:C 0.000276239
4 *1865:X 0.000198438
5 *491:23 0.000605909
6 *491:8 0.00072742
7 *1866:C *1863:A1 0.000134249
8 *1866:C *2140:A 6.60257e-06
9 *1866:C *536:8 3.18737e-05
10 *1866:C *677:50 7.06865e-05
11 *1880:B *1872:B 5.13751e-05
12 *1880:B *1880:D 0.000176274
13 *1880:B *1882:C 2.00976e-05
14 *1880:B *559:16 4.23392e-05
15 *1880:B *697:39 0
16 *1882:B *535:86 6.52347e-05
17 *491:8 *1865:C 4.01778e-05
18 *491:8 *2021:CLK 9.66021e-05
19 *491:23 *1863:A1 0.000175999
20 *491:23 *1880:D 3.05727e-05
21 *491:23 *500:10 7.23602e-05
22 *491:23 *535:86 0
23 *491:23 *535:106 0
24 *491:23 *559:16 4.28112e-06
25 *1857:B1 *1866:C 8.50605e-05
26 *1857:B1 *491:23 0.000233231
27 *1860:C *1866:C 8.43862e-05
28 *1863:B1 *491:23 9.15582e-05
29 *1866:A *1866:C 8.8266e-05
30 *2021:D *491:23 9.54469e-05
*RES
1 *1865:X *491:8 6.12 
2 *491:8 *1866:C 8.685 
3 *491:8 *491:23 6.93 
4 *491:23 *1882:B 4.74 
5 *491:23 *1880:B 7.63107 
*END

*D_NET *492 0.0131122
*CONN
*I *1870:A2 I *D sky130_fd_sc_hd__a21oi_2
*I *1877:B I *D sky130_fd_sc_hd__and3_2
*I *1868:A2 I *D sky130_fd_sc_hd__o21ai_2
*I *1876:A1 I *D sky130_fd_sc_hd__a21oi_2
*I *1874:A I *D sky130_fd_sc_hd__nand2_2
*I *1869:A2 I *D sky130_fd_sc_hd__a21oi_2
*I *1871:C I *D sky130_fd_sc_hd__and3_2
*I *1867:C I *D sky130_fd_sc_hd__nor3_2
*I *1866:X O *D sky130_fd_sc_hd__and3_2
*CAP
1 *1870:A2 4.14732e-05
2 *1877:B 5.79946e-05
3 *1868:A2 2.08101e-05
4 *1876:A1 0.000125326
5 *1874:A 0.000455408
6 *1869:A2 3.94829e-05
7 *1871:C 6.38419e-05
8 *1867:C 0.000697118
9 *1866:X 0
10 *492:87 0.000932765
11 *492:79 0.000735113
12 *492:71 0.000544962
13 *492:60 0.000434418
14 *492:43 0.000746245
15 *492:4 0.00115075
16 *1867:C *1865:D 6.39729e-05
17 *1867:C *1867:A 0.0003505
18 *1867:C *667:12 0.000120655
19 *1867:C *667:55 0.0001249
20 *1869:A2 *1870:B1 4.77807e-05
21 *1869:A2 *1872:B 4.71087e-05
22 *1869:A2 *1873:A 3.35155e-05
23 *1870:A2 *1870:A1 4.77769e-05
24 *1870:A2 *1873:A 0.000160342
25 *1871:C *1609:A 2.77283e-05
26 *1874:A *2025:CLK 4.89295e-05
27 *1874:A *543:37 5.53249e-06
28 *1874:A *686:12 0.000181067
29 *1876:A1 *1899:A2 4.99619e-05
30 *1877:B *496:22 0.000252282
31 *1877:B *703:10 0.000243751
32 *492:43 *1609:A 2.88234e-05
33 *492:43 *1871:B 0.000115177
34 *492:43 *1873:B 7.23943e-06
35 *492:43 *1881:A 0
36 *492:43 *1886:B 1.07797e-05
37 *492:43 *2240:A 8.10063e-05
38 *492:43 *666:10 5.93674e-05
39 *492:43 *675:16 7.96104e-06
40 *492:43 *697:39 6.63219e-06
41 *492:60 *1870:A1 7.63391e-05
42 *492:60 *1871:B 0.000315482
43 *492:60 *1873:B 3.81604e-05
44 *492:60 *1873:C 4.66108e-05
45 *492:60 *1885:A2 1.52897e-06
46 *492:60 *504:19 0.000319904
47 *492:60 *686:50 9.10613e-05
48 *492:71 *1870:A1 2.69443e-06
49 *492:71 *1879:B 0.000135698
50 *492:71 *496:22 0.000113409
51 *492:71 *504:19 0
52 *492:71 *703:10 0.000111749
53 *492:79 *1883:A1 5.67157e-05
54 *492:79 *1883:B1 5.8836e-05
55 *492:79 *2298:A 0.000269087
56 *492:87 *1873:A 3.09233e-05
57 *492:87 *1875:B1 0
58 *492:87 *1876:A2 0
59 *492:87 *1888:A 0
60 *492:87 *1899:A1 4.43871e-06
61 *492:87 *2298:A 0.000159741
62 *492:87 *686:27 0.000111316
63 *492:87 *702:10 0.000127373
64 *492:87 *702:12 0.000152134
65 pcRegister[15] *1874:A 0
66 *1713:B1 *492:43 8.73389e-06
67 *1853:B *1867:C 8.65905e-05
68 *1853:B *492:43 0.0001855
69 *1857:A2 *492:43 3.18219e-05
70 *1860:C *1867:C 0.000746861
71 *1860:C *492:43 5.83121e-06
72 *1866:A *492:43 1.47347e-05
73 *1867:B *1867:C 5.12969e-06
74 *1875:C1 *1868:A2 0
75 *1875:C1 *492:79 0.00010585
76 *1875:C1 *492:87 8.88715e-05
77 *2022:D *1867:C 0.000140032
78 *2025:D *1874:A 0.000300095
79 *2025:D *1876:A1 0.000130453
80 *2029:D *492:79 0.000158066
81 *2030:D *492:43 4.219e-05
82 *2063:D *492:43 0.000178041
83 *169:28 *492:79 8.40213e-05
84 *404:22 *492:43 7.66908e-05
85 *482:8 *1867:C 4.43871e-06
86 *482:12 *1867:C 0.000135094
87 *482:34 *1867:C 4.6656e-05
88 *483:61 *492:43 0.000144832
*RES
1 *1866:X *492:4 1.6 
2 *492:4 *1867:C 20.675 
3 *492:4 *492:43 13.67 
4 *492:43 *1871:C 4.395 
5 *492:43 *492:60 9.05 
6 *492:60 *1869:A2 2.74 
7 *492:60 *492:71 4.91 
8 *492:71 *492:79 8.945 
9 *492:79 *492:87 11.71 
10 *492:87 *1874:A 14.495 
11 *492:87 *1876:A1 4.495 
12 *492:79 *1868:A2 1.96 
13 *492:71 *1877:B 6.51 
14 *492:60 *1870:A2 3.445 
*END

*D_NET *493 0.000666798
*CONN
*I *1869:B1 I *D sky130_fd_sc_hd__a21oi_2
*I *1868:Y O *D sky130_fd_sc_hd__o21ai_2
*CAP
1 *1869:B1 0.000105619
2 *1868:Y 0.000105619
3 *1869:B1 *1869:A1 0.000197243
4 *1869:B1 *1873:A 0.000196084
5 *1869:B1 *496:54 6.22326e-05
*RES
1 *1868:Y *1869:B1 10.41 
*END

*D_NET *494 0.00308402
*CONN
*I *1872:B I *D sky130_fd_sc_hd__nor3_2
*I *1870:Y O *D sky130_fd_sc_hd__a21oi_2
*CAP
1 *1872:B 0.00107368
2 *1870:Y 0.00107368
3 *1872:B *1870:B1 0.000130589
4 *1872:B *1872:A 1.87367e-05
5 *1872:B *1872:C 4.77719e-05
6 *1872:B *1880:D 8.65529e-06
7 *1872:B *2267:A 0.000165461
8 *1872:B *2292:A 1.79174e-05
9 *1872:B *495:26 0.000248919
10 *1872:B *535:86 0.000126706
11 *1872:B *559:16 6.90254e-05
12 *1869:A2 *1872:B 4.71087e-05
13 *1880:B *1872:B 5.13751e-05
14 *1882:A *1872:B 4.40325e-06
*RES
1 *1870:Y *1872:B 22.785 
*END

*D_NET *495 0.0039551
*CONN
*I *1875:A2 I *D sky130_fd_sc_hd__o211a_2
*I *1872:C I *D sky130_fd_sc_hd__nor3_2
*I *1871:X O *D sky130_fd_sc_hd__and3_2
*CAP
1 *1875:A2 0.000355799
2 *1872:C 9.07419e-06
3 *1871:X 0.000634039
4 *495:26 0.000998912
5 *1872:C *1872:A 2.20405e-05
6 *1875:A2 *1875:A1 5.18317e-06
7 *1875:A2 *543:37 0
8 *1875:A2 *679:112 0
9 *495:26 *1609:A 3.96284e-05
10 *495:26 *1863:A1 4.82919e-05
11 *495:26 *1872:A 0.000310375
12 *495:26 *2292:A 4.77807e-05
13 *495:26 *500:10 0.000415924
14 *495:26 *535:86 4.72952e-05
15 *495:26 *543:10 8.65905e-05
16 *495:26 *679:89 4.99e-05
17 *1863:A2 *495:26 0.000107121
18 *1872:B *1872:C 4.77719e-05
19 *1872:B *495:26 0.000248919
20 *1880:A *495:26 0
21 *1882:A *495:26 0.000161529
22 *2023:D *495:26 1.6408e-05
23 *2026:D *1875:A2 0.000302523
24 *482:34 *495:26 0
*RES
1 *1871:X *495:26 20.66 
2 *495:26 *1872:C 2.05 
3 *495:26 *1875:A2 12.38 
*END

*D_NET *496 0.00740028
*CONN
*I *1877:C I *D sky130_fd_sc_hd__and3_2
*I *1880:C I *D sky130_fd_sc_hd__nand4_2
*I *1882:C I *D sky130_fd_sc_hd__and4_2
*I *1876:A2 I *D sky130_fd_sc_hd__a21oi_2
*I *1874:B I *D sky130_fd_sc_hd__nand2_2
*I *1873:X O *D sky130_fd_sc_hd__and3_2
*CAP
1 *1877:C 0
2 *1880:C 0
3 *1882:C 0.000108876
4 *1876:A2 6.89288e-05
5 *1874:B 0.000637619
6 *1873:X 0.000604748
7 *496:54 0.000589821
8 *496:26 0.000863095
9 *496:24 0.00100282
10 *496:22 0.00097008
11 *1874:B *1875:B1 4.39911e-06
12 *1874:B *2028:CLK 0.000574101
13 *1874:B *543:37 2.01565e-05
14 *1876:A2 *1888:A 6.12493e-05
15 *1876:A2 *1899:A1 5.53249e-06
16 *1882:C *1880:D 0.000228356
17 *1882:C *500:10 9.50342e-06
18 *1882:C *535:86 4.25845e-05
19 *496:22 *1877:A 2.05056e-05
20 *496:22 *1881:A 1.83756e-05
21 *496:22 *1881:B 7.06865e-05
22 *496:22 *1883:B1 0.000161529
23 *496:22 *1885:A2 3.57349e-05
24 *496:22 *1891:C 0
25 *496:22 *2200:A 5.28859e-05
26 *496:22 *504:19 0
27 *496:22 *703:10 1.1561e-05
28 *496:24 *1877:A 2.75229e-05
29 *496:24 *703:6 5.17188e-05
30 *496:54 *1869:A1 0
31 *496:54 *1878:B 3.76596e-05
32 *496:54 *1880:D 9.12494e-06
33 *496:54 *577:10 0
34 *496:54 *702:12 0
35 *1869:B1 *496:54 6.22326e-05
36 *1877:B *496:22 0.000252282
37 *1880:B *1882:C 2.00976e-05
38 *2012:RESET_B *496:22 7.06865e-05
39 *2025:D *496:54 0.000159399
40 *2028:D *1874:B 9.26175e-06
41 *2028:D *496:26 8.18542e-05
42 *2028:D *496:54 0.000183738
43 *2029:D *496:22 0.000118527
44 *169:26 *496:54 3.96088e-05
45 *492:71 *496:22 0.000113409
46 *492:87 *1876:A2 0
*RES
1 *1873:X *496:22 20.04 
2 *496:22 *496:24 4.245 
3 *496:24 *496:26 1.83 
4 *496:26 *1874:B 10.255 
5 *496:26 *1876:A2 6.98 
6 *496:24 *496:54 11.33 
7 *496:54 *1882:C 6.51 
8 *496:54 *1880:C 3.6 
9 *496:22 *1877:C 1.6 
*END

*D_NET *497 0.00133728
*CONN
*I *1875:B1 I *D sky130_fd_sc_hd__o211a_2
*I *1874:Y O *D sky130_fd_sc_hd__nand2_2
*CAP
1 *1875:B1 0.000479768
2 *1874:Y 0.000479768
3 *1875:B1 *2028:CLK 3.66046e-05
4 *1875:B1 *2298:A 1.33269e-05
5 *1875:B1 *543:37 1.73792e-05
6 *1875:B1 *679:112 0
7 *1875:B1 *686:27 0
8 *1874:B *1875:B1 4.39911e-06
9 *1875:C1 *1875:B1 1.75875e-05
10 *2027:D *1875:B1 0.000288444
11 *492:87 *1875:B1 0
*RES
1 *1874:Y *1875:B1 14.385 
*END

*D_NET *498 0.000863201
*CONN
*I *1878:B I *D sky130_fd_sc_hd__nor3_2
*I *1876:Y O *D sky130_fd_sc_hd__a21oi_2
*CAP
1 *1878:B 0.000140371
2 *1876:Y 0.000140371
3 *1878:B *1888:A 0.000312785
4 *2025:D *1878:B 4.66108e-05
5 *2028:D *1878:B 0.000185405
6 *496:54 *1878:B 3.76596e-05
*RES
1 *1876:Y *1878:B 11.325 
*END

*D_NET *499 0.00124624
*CONN
*I *1883:A2 I *D sky130_fd_sc_hd__o211a_2
*I *1878:C I *D sky130_fd_sc_hd__nor3_2
*I *1877:X O *D sky130_fd_sc_hd__and3_2
*CAP
1 *1883:A2 4.89132e-05
2 *1878:C 7.90449e-05
3 *1877:X 0.000197861
4 *499:12 0.000325819
5 *1878:C *2267:A 3.93101e-05
6 *1883:A2 *2267:A 8.97486e-05
7 *499:12 *2267:A 4.80285e-05
8 *499:12 *703:10 0.000141606
9 *499:12 *704:10 2.75145e-05
10 *2025:D *1883:A2 0.000162318
11 *2025:D *499:12 0
12 *2028:D *1878:C 8.60799e-05
*RES
1 *1877:X *499:12 9.41 
2 *499:12 *1878:C 3.085 
3 *499:12 *1883:A2 7.49 
*END

*D_NET *500 0.00191688
*CONN
*I *1880:D I *D sky130_fd_sc_hd__nand4_2
*I *1882:D I *D sky130_fd_sc_hd__and4_2
*I *1879:X O *D sky130_fd_sc_hd__and2_2
*CAP
1 *1880:D 9.53045e-05
2 *1882:D 0
3 *1879:X 0.000329294
4 *500:10 0.000424599
5 *1880:D *2299:A 4.77807e-05
6 *1880:D *686:37 4.66108e-05
7 *500:10 *535:86 2.25161e-05
8 *1872:B *1880:D 8.65529e-06
9 *1880:B *1880:D 0.000176274
10 *1882:C *1880:D 0.000228356
11 *1882:C *500:10 9.50342e-06
12 *491:23 *1880:D 3.05727e-05
13 *491:23 *500:10 7.23602e-05
14 *495:26 *500:10 0.000415924
15 *496:54 *1880:D 9.12494e-06
*RES
1 *1879:X *500:10 8.37 
2 *500:10 *1882:D 3.6 
3 *500:10 *1880:D 6.96 
*END

*D_NET *501 0.00331488
*CONN
*I *1887:B1 I *D sky130_fd_sc_hd__a2111oi_2
*I *1881:B I *D sky130_fd_sc_hd__or2_2
*I *1880:Y O *D sky130_fd_sc_hd__nand4_2
*CAP
1 *1887:B1 0.000236393
2 *1881:B 0.000182787
3 *1880:Y 0.000615515
4 *501:14 0.00103469
5 *1881:B *1608:A 5.53249e-06
6 *1881:B *1881:A 0.000418372
7 *1881:B *506:10 0
8 *1887:B1 *2030:CLK 2.93836e-05
9 *1887:B1 *2146:A 4.98216e-05
10 *1887:B1 *506:10 3.35266e-05
11 *1887:B1 *545:49 2.26545e-05
12 *501:14 *2030:CLK 2.65814e-06
13 *501:14 *686:37 0.000360184
14 *1771:A *1887:B1 2.18843e-05
15 *1884:B *501:14 0.000119873
16 *1887:C1 *1881:B 2.93136e-05
17 *2012:RESET_B *1881:B 2.88063e-05
18 *2030:D *501:14 5.27944e-05
19 *496:22 *1881:B 7.06865e-05
*RES
1 *1880:Y *501:14 10.225 
2 *501:14 *1881:B 10.55 
3 *501:14 *1887:B1 5.2 
*END

*D_NET *502 0.00256947
*CONN
*I *1885:A2 I *D sky130_fd_sc_hd__a21o_2
*I *1883:B1 I *D sky130_fd_sc_hd__o211a_2
*I *1881:X O *D sky130_fd_sc_hd__or2_2
*CAP
1 *1885:A2 0.000196894
2 *1883:B1 0.000184201
3 *1881:X 0
4 *502:4 0.000381095
5 *1883:B1 *1883:A1 8.42302e-05
6 *1883:B1 *2208:A 0.000195476
7 *1883:B1 *2298:A 0.00031776
8 *1885:A2 *1873:B 0.000410855
9 *1885:A2 *1881:A 4.24621e-05
10 *1885:A2 *504:19 0.000489062
11 *2029:D *1883:B1 9.80943e-06
12 *492:60 *1885:A2 1.52897e-06
13 *492:79 *1883:B1 5.8836e-05
14 *496:22 *1883:B1 0.000161529
15 *496:22 *1885:A2 3.57349e-05
*RES
1 *1881:X *502:4 1.6 
2 *502:4 *1883:B1 7.15 
3 *502:4 *1885:A2 12.02 
*END

*D_NET *503 0.000356021
*CONN
*I *1884:C I *D sky130_fd_sc_hd__and3_2
*I *1882:X O *D sky130_fd_sc_hd__and4_2
*CAP
1 *1884:C 0.000107916
2 *1882:X 0.000107916
3 *1884:C *1609:A 7.40446e-05
4 *1884:C *535:86 1.61831e-05
5 *1884:C *559:16 4.99619e-05
*RES
1 *1882:X *1884:C 4.685 
*END

*D_NET *504 0.00258293
*CONN
*I *1891:C I *D sky130_fd_sc_hd__and3_2
*I *1889:A2 I *D sky130_fd_sc_hd__o21a_2
*I *1885:B1 I *D sky130_fd_sc_hd__a21o_2
*I *1884:X O *D sky130_fd_sc_hd__and3_2
*CAP
1 *1891:C 8.75375e-05
2 *1889:A2 2.32329e-05
3 *1885:B1 0
4 *1884:X 4.99525e-05
5 *504:19 0.000607873
6 *504:6 0.000547055
7 *1889:A2 *1889:A1 2.75145e-05
8 *1891:C *1889:A1 2.67022e-05
9 *1891:C *2200:A 0
10 *1891:C *560:19 0
11 *504:6 *1609:A 4.66108e-05
12 *504:6 *535:76 8.83758e-05
13 *504:19 *1608:A 0
14 *504:19 *1870:A1 1.0397e-05
15 *504:19 *1881:A 1.5933e-05
16 *504:19 *535:76 4.60814e-05
17 *504:19 *560:19 0
18 *1885:A2 *504:19 0.000489062
19 *2029:D *504:19 4.49585e-05
20 *447:12 *504:6 7.9099e-05
21 *447:12 *504:19 7.26398e-05
22 *492:60 *504:19 0.000319904
23 *492:71 *504:19 0
24 *496:22 *1891:C 0
25 *496:22 *504:19 0
*RES
1 *1884:X *504:6 3.085 
2 *504:6 *1885:B1 1.6 
3 *504:6 *504:19 13.46 
4 *504:19 *1889:A2 4.05 
5 *504:19 *1891:C 4.98 
*END

*D_NET *505 0.00222221
*CONN
*I *1886:B I *D sky130_fd_sc_hd__nor2_2
*I *1885:X O *D sky130_fd_sc_hd__a21o_2
*CAP
1 *1886:B 0.000462402
2 *1885:X 0.000462402
3 *1886:B *1609:A 0.000175329
4 *1886:B *1857:A1 0.00015896
5 *1886:B *1978:A 4.47209e-05
6 *1886:B *679:79 5.83121e-06
7 *1857:A2 *1886:B 1.47256e-05
8 *2030:D *1886:B 0.000829715
9 *447:18 *1886:B 5.7344e-05
10 *492:43 *1886:B 1.07797e-05
*RES
1 *1885:X *1886:B 18.69 
*END

*D_NET *506 0.00187101
*CONN
*I *1888:B I *D sky130_fd_sc_hd__nor2_2
*I *2264:A I *D sky130_fd_sc_hd__buf_1
*I *1887:Y O *D sky130_fd_sc_hd__a2111oi_2
*CAP
1 *1888:B 0.000291927
2 *2264:A 0
3 *1887:Y 0.000298697
4 *506:10 0.000590624
5 *1888:B *1608:A 2.33678e-05
6 *1888:B *1888:A 5.14739e-05
7 *1888:B *1889:B1 3.68769e-05
8 *1888:B *2029:CLK 0
9 *1888:B *2193:A 1.16578e-05
10 *1888:B *672:10 0.000134758
11 *506:10 *1608:A 6.9451e-05
12 *506:10 *2029:CLK 0
13 *506:10 *545:49 2.69217e-05
14 *506:10 *545:86 0
15 *1881:B *506:10 0
16 *1887:A2 *506:10 0
17 *1887:B1 *506:10 3.35266e-05
18 *1887:C1 *506:10 3.75882e-06
19 *1887:D1 *506:10 0.000286207
20 *2012:RESET_B *506:10 1.17616e-05
*RES
1 *1887:Y *506:10 10.275 
2 *506:10 *2264:A 3.6 
3 *506:10 *1888:B 9.48 
*END

*D_NET *507 0.00102552
*CONN
*I *1889:B1 I *D sky130_fd_sc_hd__o21a_2
*I *1888:Y O *D sky130_fd_sc_hd__nor2_2
*CAP
1 *1889:B1 0.000268973
2 *1888:Y 0.000268973
3 *1889:B1 *1889:A1 0.000101999
4 *1888:B *1889:B1 3.68769e-05
5 *2031:D *1889:B1 0.000348699
*RES
1 *1888:Y *1889:B1 12.585 
*END

*D_NET *508 0.00109302
*CONN
*I *1892:B I *D sky130_fd_sc_hd__nor3_2
*I *1890:Y O *D sky130_fd_sc_hd__nor2_2
*CAP
1 *1892:B 0.000439205
2 *1890:Y 0.000439205
3 *1892:B *1892:A 0
4 *1892:B *1896:A 3.68769e-05
5 *1892:B *2033:CLK 6.83659e-05
6 *1892:B *2268:A 3.09164e-05
7 *1892:B *509:21 0
8 *1892:B *561:37 4.31189e-05
9 *2032:D *1892:B 3.18219e-05
10 *2033:D *1892:B 3.51254e-06
*RES
1 *1890:Y *1892:B 13.155 
*END

*D_NET *509 0.00318419
*CONN
*I *1895:A2 I *D sky130_fd_sc_hd__a21oi_2
*I *1894:A2 I *D sky130_fd_sc_hd__o21ba_2
*I *1892:C I *D sky130_fd_sc_hd__nor3_2
*I *1891:X O *D sky130_fd_sc_hd__and3_2
*CAP
1 *1895:A2 0.000576611
2 *1894:A2 1.17533e-05
3 *1892:C 3.83895e-05
4 *1891:X 0.000110862
5 *509:21 0.000882503
6 *509:10 0.00044339
7 *1892:C *2268:A 8.49205e-05
8 *1894:A2 *1893:A1 4.82863e-05
9 *1894:A2 *2271:A 2.75145e-05
10 *1895:A2 *1895:A1 0.000123225
11 *1895:A2 *1896:A 5.23362e-05
12 *1895:A2 *1897:B 4.66108e-05
13 *1895:A2 *1905:A2 4.82863e-05
14 *1895:A2 *2034:CLK 8.30403e-05
15 *1895:A2 *563:12 3.18137e-05
16 *1895:A2 *682:42 6.0627e-05
17 *509:10 *1888:A 3.00381e-05
18 *509:10 *561:37 7.70938e-05
19 *509:21 *1896:A 0.0003175
20 *509:21 *2158:A 0
21 *509:21 *561:37 5.83373e-05
22 *509:21 *562:10 0
23 *509:21 *562:40 0
24 *1892:B *509:21 0
25 *2034:D *1895:A2 3.10498e-05
*RES
1 *1891:X *509:10 5.685 
2 *509:10 *1892:C 4.395 
3 *509:10 *509:21 5.97 
4 *509:21 *1894:A2 4.05 
5 *509:21 *1895:A2 12.615 
*END

*D_NET *510 0.000693279
*CONN
*I *1894:B1_N I *D sky130_fd_sc_hd__o21ba_2
*I *1893:X O *D sky130_fd_sc_hd__a31o_2
*CAP
1 *1894:B1_N 0.000169029
2 *1893:X 0.000169029
3 *1894:B1_N *1893:A1 0.000137609
4 *1894:B1_N *1893:A3 0.0001249
5 *1894:B1_N *563:12 7.00889e-06
6 *1828:B *1894:B1_N 8.57024e-05
*RES
1 *1893:X *1894:B1_N 7.1 
*END

*D_NET *511 0.000448594
*CONN
*I *1897:B I *D sky130_fd_sc_hd__nor3_2
*I *1895:Y O *D sky130_fd_sc_hd__a21oi_2
*CAP
1 *1897:B 7.77041e-05
2 *1895:Y 7.77041e-05
3 *1897:B *1895:A1 0.000139245
4 *1897:B *2256:A 4.18603e-06
5 *1897:B *512:38 1.89685e-05
6 *1897:B *512:51 7.81954e-05
7 *1897:B *682:44 5.98004e-06
8 *1895:A2 *1897:B 4.66108e-05
*RES
1 *1895:Y *1897:B 9.54 
*END

*D_NET *512 0.00445412
*CONN
*I *1900:A2 I *D sky130_fd_sc_hd__a21oi_2
*I *1903:D I *D sky130_fd_sc_hd__and4_2
*I *1901:C I *D sky130_fd_sc_hd__and3_2
*I *1897:C I *D sky130_fd_sc_hd__nor3_2
*I *1898:A2 I *D sky130_fd_sc_hd__a21oi_2
*I *1899:A2 I *D sky130_fd_sc_hd__o21a_2
*I *1896:X O *D sky130_fd_sc_hd__and4_2
*CAP
1 *1900:A2 0
2 *1903:D 0
3 *1901:C 0.000225759
4 *1897:C 0
5 *1898:A2 6.87487e-05
6 *1899:A2 7.83808e-05
7 *1896:X 3.29918e-05
8 *512:51 0.000604954
9 *512:38 0.000618384
10 *512:14 0.00028782
11 *512:8 0.00045244
12 *512:6 0.000105553
13 *1898:A2 *1898:A1 8.65905e-05
14 *1898:A2 *1899:B1 4.66108e-05
15 *1898:A2 *2268:A 3.96737e-05
16 *1899:A2 *1898:B1 4.43871e-06
17 *1899:A2 *1899:A1 5.21046e-05
18 *1899:A2 *1899:B1 0.00011852
19 *1901:C *1903:A 8.52883e-05
20 *1901:C *1903:B 6.41962e-05
21 *1901:C *1903:C 1.52352e-05
22 *1901:C *1905:A2 9.76407e-06
23 *1901:C *569:31 2.49909e-05
24 *512:6 *2270:A 7.53005e-05
25 *512:8 *2270:A 9.29046e-05
26 *512:14 *1898:B1 0.00010412
27 *512:14 *1900:B1 0.000160641
28 *512:14 *1902:B 0.000198945
29 *512:14 *2270:A 4.60584e-05
30 *512:38 *1898:B1 0
31 *512:38 *2256:A 0
32 *512:38 *562:40 0
33 *512:38 *564:8 6.55406e-05
34 *512:38 *683:46 0
35 *512:51 *1895:A1 1.48307e-05
36 *512:51 *1905:A2 9.96424e-05
37 *512:51 *2034:CLK 0.000342598
38 *512:51 *683:46 0
39 *1876:A1 *1899:A2 4.99619e-05
40 *1897:B *512:38 1.89685e-05
41 *1897:B *512:51 7.81954e-05
42 *2035:D *1899:A2 8.08153e-06
43 *2035:D *512:14 7.58866e-05
*RES
1 *1896:X *512:6 2.395 
2 *512:6 *512:8 1.485 
3 *512:8 *512:14 6.575 
4 *512:14 *1899:A2 5.685 
5 *512:14 *1898:A2 5.085 
6 *512:8 *512:38 6.185 
7 *512:38 *1897:C 3.6 
8 *512:38 *512:51 8.21 
9 *512:51 *1901:C 4.465 
10 *512:51 *1903:D 1.6 
11 *512:6 *1900:A2 1.6 
*END

*D_NET *513 0.000459174
*CONN
*I *1899:B1 I *D sky130_fd_sc_hd__o21a_2
*I *1898:Y O *D sky130_fd_sc_hd__a21oi_2
*CAP
1 *1899:B1 9.62579e-05
2 *1898:Y 9.62579e-05
3 *1899:B1 *1898:A1 2.16917e-05
4 *1899:B1 *1899:A1 1.01661e-05
5 *1899:B1 *2025:CLK 1.56982e-05
6 *1898:A2 *1899:B1 4.66108e-05
7 *1899:A2 *1899:B1 0.00011852
8 *2035:D *1899:B1 5.39718e-05
*RES
1 *1898:Y *1899:B1 9.63 
*END

*D_NET *514 0.00142704
*CONN
*I *1902:B I *D sky130_fd_sc_hd__nor3_2
*I *1900:Y O *D sky130_fd_sc_hd__a21oi_2
*CAP
1 *1902:B 0.000460164
2 *1900:Y 0.000460164
3 *1902:B *1900:B1 2.16833e-05
4 *1902:B *2025:CLK 3.86725e-05
5 *1902:B *2035:CLK 5.83121e-06
6 *1902:B *2199:A 4.91189e-05
7 *1902:B *2270:A 8.62153e-05
8 *1902:B *564:48 0.000106246
9 *512:14 *1902:B 0.000198945
*RES
1 *1900:Y *1902:B 15.825 
*END

*D_NET *515 0.00261523
*CONN
*I *1905:A2 I *D sky130_fd_sc_hd__o21a_2
*I *1902:C I *D sky130_fd_sc_hd__nor3_2
*I *1901:X O *D sky130_fd_sc_hd__and3_2
*CAP
1 *1905:A2 0.00033685
2 *1902:C 0.0003955
3 *1901:X 0
4 *515:4 0.00073235
5 *1902:C *1902:A 6.95473e-06
6 *1902:C *2199:A 4.01535e-05
7 *1902:C *2271:A 0
8 *1902:C *564:48 8.78088e-05
9 *1902:C *569:27 9.14049e-05
10 *1905:A2 *1903:C 0.000197826
11 *1905:A2 *1905:A1 9.12494e-06
12 *1905:A2 *1905:B1 2.68111e-05
13 *1905:A2 *2034:CLK 2.59835e-05
14 *1905:A2 *2271:A 0.000196669
15 *1905:A2 *516:14 0.000192419
16 *1905:A2 *683:46 0
17 *1895:A2 *1905:A2 4.82863e-05
18 *1901:C *1905:A2 9.76407e-06
19 *2036:D *1902:C 0.000117687
20 *512:51 *1905:A2 9.96424e-05
*RES
1 *1901:X *515:4 1.6 
2 *515:4 *1902:C 11.1011 
3 *515:4 *1905:A2 13.28 
*END

*D_NET *516 0.00665892
*CONN
*I *1904:B I *D sky130_fd_sc_hd__nor2_2
*I *1908:A2 I *D sky130_fd_sc_hd__a21oi_2
*I *1907:A2 I *D sky130_fd_sc_hd__o21a_2
*I *1906:A2 I *D sky130_fd_sc_hd__a21oi_2
*I *1909:C I *D sky130_fd_sc_hd__and3_2
*I *1911:D I *D sky130_fd_sc_hd__and4_2
*I *1903:X O *D sky130_fd_sc_hd__and4_2
*CAP
1 *1904:B 0
2 *1908:A2 5.87254e-05
3 *1907:A2 0.000161931
4 *1906:A2 0.000179522
5 *1909:C 0
6 *1911:D 0
7 *1903:X 0.000201793
8 *516:42 0.000749741
9 *516:36 0.000597114
10 *516:27 0.000254487
11 *516:18 0.000290632
12 *516:14 0.000368039
13 *1906:A2 *1906:A1 1.19928e-05
14 *1906:A2 *1906:B1 0.000122331
15 *1906:A2 *1907:A1 0.000272728
16 *1906:A2 *1907:B1 0.000148317
17 *1906:A2 *1913:A2 4.77757e-05
18 *1907:A2 *1907:A1 0.000383935
19 *1907:A2 *1907:B1 0.000194473
20 *1908:A2 *1908:A1 4.31106e-05
21 *1908:A2 *1913:A1 6.71882e-05
22 *1908:A2 *2279:A 0.000123225
23 *1908:A2 *521:31 3.9442e-05
24 *1908:A2 *670:14 6.94735e-06
25 *516:14 *1905:A1 8.33066e-06
26 *516:14 *2034:CLK 0.000196699
27 *516:18 *1911:C 9.50342e-06
28 *516:18 *591:10 0
29 *516:18 *683:46 5.31158e-06
30 *516:18 *683:57 0.000165961
31 *516:27 *1911:B 0
32 *516:27 *1911:C 6.28498e-05
33 *516:27 *521:8 0.000142719
34 *516:27 *591:10 0
35 *516:27 *591:25 0.000298449
36 *516:36 *1908:A1 9.37731e-05
37 *516:36 *521:8 0.0001311
38 *516:36 *521:31 5.92191e-05
39 *516:36 *591:25 4.21314e-05
40 *516:36 *591:42 6.97124e-05
41 *516:36 *591:53 0.000160651
42 *516:42 *1913:A1 0.000412154
43 *1905:A2 *516:14 0.000192419
44 *2037:D *516:14 0.000160338
45 *2041:D *516:42 0.000124151
*RES
1 *1903:X *516:14 10.805 
2 *516:14 *516:18 5.675 
3 *516:18 *1911:D 3.6 
4 *516:18 *516:27 4.185 
5 *516:27 *1909:C 3.6 
6 *516:27 *516:36 4.185 
7 *516:36 *516:42 9.28 
8 *516:42 *1906:A2 8.61 
9 *516:42 *1907:A2 8.295 
10 *516:36 *1908:A2 5.61 
11 *516:14 *1904:B 1.6 
*END

*D_NET *517 0.000726238
*CONN
*I *1905:B1 I *D sky130_fd_sc_hd__o21a_2
*I *1904:Y O *D sky130_fd_sc_hd__nor2_2
*CAP
1 *1905:B1 0.000213695
2 *1904:Y 0.000213695
3 *1905:B1 *1895:B1 2.69443e-06
4 *1905:A2 *1905:B1 2.68111e-05
5 *2037:D *1905:B1 0.000269343
*RES
1 *1904:Y *1905:B1 10.335 
*END

*D_NET *518 0.00161975
*CONN
*I *1907:B1 I *D sky130_fd_sc_hd__o21a_2
*I *1906:Y O *D sky130_fd_sc_hd__a21oi_2
*CAP
1 *1907:B1 0.000305116
2 *1906:Y 0.000305116
3 *1907:B1 *1906:B1 7.37496e-05
4 *1907:B1 *1907:A1 3.1117e-05
5 *1907:B1 *1913:A2 0.000356576
6 *1907:B1 *1916:A1 0.000107608
7 *1906:A2 *1907:B1 0.000148317
8 *1907:A2 *1907:B1 0.000194473
9 *2038:D *1907:B1 9.76751e-05
*RES
1 *1906:Y *1907:B1 15.975 
*END

*D_NET *519 0.00263413
*CONN
*I *1910:B I *D sky130_fd_sc_hd__nor3_2
*I *1908:Y O *D sky130_fd_sc_hd__a21oi_2
*CAP
1 *1910:B 0.00078847
2 *1908:Y 0.00078847
3 *1910:B *1910:C 0.000434566
4 *1910:B *1911:A 0
5 *1910:B *1913:A1 0.000121641
6 *1910:B *2273:A 0.000210151
7 *1910:B *2279:A 8.11509e-05
8 *1910:B *614:25 0
9 pcRegister[23] *1910:B 1.42329e-05
10 pcRegister[26] *1910:B 0.000195445
*RES
1 *1908:Y *1910:B 20.925 
*END

*D_NET *520 0.00583467
*CONN
*I *1913:A2 I *D sky130_fd_sc_hd__o21a_2
*I *1910:C I *D sky130_fd_sc_hd__nor3_2
*I *1909:X O *D sky130_fd_sc_hd__and3_2
*CAP
1 *1913:A2 0.00102252
2 *1910:C 0.000723631
3 *1909:X 0
4 *520:4 0.00174615
5 *1910:C *1906:A1 6.71882e-05
6 *1910:C *1909:B 4.66108e-05
7 *1910:C *2276:A 6.11722e-05
8 *1910:C *602:25 1.47256e-05
9 *1910:C *614:8 3.07457e-05
10 *1913:A2 *1906:A1 0.000123147
11 *1913:A2 *1913:A1 0.000114179
12 *1913:A2 *1917:A2 5.13692e-05
13 *1913:A2 *625:16 0.000158072
14 *1913:A2 *625:77 0.000203402
15 pcRegister[23] *1910:C 0.000244903
16 *1906:A2 *1913:A2 4.77757e-05
17 *1907:B1 *1913:A2 0.000356576
18 *1910:B *1910:C 0.000434566
19 *2038:D *1913:A2 0.000358257
20 *2040:D *1910:C 2.96827e-05
*RES
1 *1909:X *520:4 1.6 
2 *520:4 *1910:C 18.725 
3 *520:4 *1913:A2 21.74 
*END

*D_NET *521 0.00706589
*CONN
*I *1930:A1 I *D sky130_fd_sc_hd__a31o_2
*I *1929:B I *D sky130_fd_sc_hd__nand4_2
*I *2154:A I *D sky130_fd_sc_hd__clkdlybuf4s25_1
*I *1911:X O *D sky130_fd_sc_hd__and4_2
*CAP
1 *1930:A1 0.00104245
2 *1929:B 1.36534e-05
3 *2154:A 9.95923e-05
4 *1911:X 0.000188579
5 *521:31 0.0015173
6 *521:8 0.000749369
7 *1929:B *1929:A 4.66108e-05
8 *1929:B *527:8 4.66108e-05
9 *1930:A1 *1619:A 0.000646862
10 *1930:A1 *1916:A1 4.87939e-05
11 *1930:A1 *1925:A3 9.3121e-05
12 *1930:A1 *1928:A_N 4.77807e-05
13 *1930:A1 *1929:A 0.000410501
14 *1930:A1 *1930:B1 5.41182e-05
15 *1930:A1 *1931:B 4.22675e-05
16 *1930:A1 *549:55 0.000128892
17 *1930:A1 *670:87 0
18 *2154:A *1908:B1 5.83121e-06
19 *2154:A *2275:A 4.82863e-05
20 *521:8 *1911:B 0.000107716
21 *521:8 *1912:B 0
22 *521:8 *2206:A 0.000102445
23 *521:8 *602:21 4.65643e-05
24 *521:31 *1908:B1 0.000113797
25 *521:31 *1912:B 0
26 *521:31 *1916:A1 4.96313e-05
27 *521:31 *1919:B1 2.31329e-05
28 *521:31 *1931:B 9.12494e-06
29 *521:31 *2279:A 8.91099e-05
30 *521:31 *2280:A 0.000125572
31 *521:31 *2282:A 0
32 *521:31 *527:8 0.000120655
33 *521:31 *547:65 2.21907e-05
34 *521:31 *625:39 0.000301599
35 *521:31 *636:36 0.00023468
36 *521:31 *647:12 0
37 red[2] *521:31 0.000104464
38 *1908:A2 *521:31 3.9442e-05
39 *2121:SET_B *1930:A1 1.21068e-05
40 *516:27 *521:8 0.000142719
41 *516:36 *521:8 0.0001311
42 *516:36 *521:31 5.92191e-05
*RES
1 *1911:X *521:8 9.315 
2 *521:8 *2154:A 5.085 
3 *521:8 *521:31 15.79 
4 *521:31 *1929:B 4.05 
5 *521:31 *1930:A1 23.305 
*END

*D_NET *522 0.00328311
*CONN
*I *1913:B1 I *D sky130_fd_sc_hd__o21a_2
*I *1912:Y O *D sky130_fd_sc_hd__nor2_2
*CAP
1 *1913:B1 0.00110912
2 *1912:Y 0.00110912
3 *1913:B1 *1802:B 0.000167843
4 *1913:B1 *1803:A2 0.000185411
5 *1913:B1 *1907:A1 1.7386e-05
6 *1913:B1 *2105:CLK 6.6925e-05
7 *1913:B1 *2106:CLK 0.000162047
8 *1913:B1 *2192:A 1.93765e-05
9 *1913:B1 *2234:A 2.16917e-05
10 *1913:B1 *535:313 8.02657e-05
11 *1913:B1 *591:14 5.83121e-06
12 *1913:B1 *685:51 1.73877e-05
13 *1913:B1 *740:25 1.10631e-05
14 *1913:B1 *740:44 3.1595e-05
15 *2040:D *1913:B1 0.000159521
16 *2106:D *1913:B1 0.000118527
17 *2220:A *1913:B1 0
*RES
1 *1912:Y *1913:B1 26.205 
*END

*D_NET *523 0.00200069
*CONN
*I *1915:B1 I *D sky130_fd_sc_hd__o21a_2
*I *1914:Y O *D sky130_fd_sc_hd__a21oi_2
*CAP
1 *1915:B1 0.000294697
2 *1914:Y 0.000294697
3 *1915:B1 *1907:A1 0
4 *1915:B1 *1915:A2 0.000246832
5 *1915:B1 *528:20 0.000122325
6 *1915:B1 *625:16 0.000128144
7 *1915:B1 *625:20 0.000305371
8 *1915:B1 *670:36 0.000454343
9 *2041:D *1915:B1 0.00015428
*RES
1 *1914:Y *1915:B1 17.16 
*END

*D_NET *524 0.00182394
*CONN
*I *1918:A I *D sky130_fd_sc_hd__nor2_2
*I *1916:Y O *D sky130_fd_sc_hd__a21oi_2
*CAP
1 *1918:A 0.000295346
2 *1916:Y 0.000295346
3 *1918:A *1916:A1 4.66108e-05
4 *1918:A *1916:A2 3.69521e-05
5 *1918:A *1918:B 9.50342e-06
6 *1918:A *1919:A2 8.34144e-06
7 *1918:A *1919:B1 0.000117407
8 *1918:A *1931:C 1.92979e-05
9 *1918:A *2285:A 4.84799e-05
10 *1918:A *547:52 3.25831e-05
11 *1918:A *547:65 0.000427697
12 *1918:A *547:71 9.85672e-05
13 *1918:A *625:39 8.80871e-05
14 *2044:D *1918:A 0.000299718
*RES
1 *1916:Y *1918:A 16.035 
*END

*D_NET *525 0.00271522
*CONN
*I *1918:B I *D sky130_fd_sc_hd__nor2_2
*I *1917:X O *D sky130_fd_sc_hd__a31o_2
*CAP
1 *1918:B 0.000759477
2 *1917:X 0.000759477
3 *1918:B *1914:B1 0.000593641
4 *1918:B *1921:B 6.15576e-06
5 *1918:B *547:52 1.80024e-05
6 *1918:B *625:39 7.7286e-05
7 *1918:B *670:70 1.88602e-05
8 *1918:B *688:68 0.000312337
9 red[2] *1918:B 5.87974e-05
10 red[4] *1918:B 0
11 *1918:A *1918:B 9.50342e-06
12 *2042:D *1918:B 0.000101678
*RES
1 *1917:X *1918:B 11.7479 
*END

*D_NET *526 0.00309712
*CONN
*I *1922:B I *D sky130_fd_sc_hd__and3_2
*I *1919:X O *D sky130_fd_sc_hd__a31o_2
*CAP
1 *1922:B 0.000917789
2 *1919:X 0.000917789
3 *1922:B *1607:A 7.15714e-05
4 *1922:B *1919:B1 0.000271111
5 *1922:B *1922:C 3.33059e-05
6 *1922:B *1926:A 0.000277944
7 *1922:B *2184:A 0.00016031
8 *1922:B *2246:A 4.77719e-05
9 *1922:B *2288:A 0.000253772
10 *1922:B *670:115 6.04802e-05
11 Hsync *1922:B 5.54182e-05
12 *2043:D *1922:B 2.98587e-05
*RES
1 *1919:X *1922:B 23.655 
*END

*D_NET *527 0.00659067
*CONN
*I *1921:B I *D sky130_fd_sc_hd__nand2_2
*I *1927:A2 I *D sky130_fd_sc_hd__a31o_2
*I *1930:A2 I *D sky130_fd_sc_hd__a31o_2
*I *1925:A3 I *D sky130_fd_sc_hd__a31o_2
*I *1923:A3 I *D sky130_fd_sc_hd__a31o_2
*I *1929:C I *D sky130_fd_sc_hd__nand4_2
*I *1920:X O *D sky130_fd_sc_hd__and3_2
*CAP
1 *1921:B 0.000374163
2 *1927:A2 6.2909e-05
3 *1930:A2 0
4 *1925:A3 0.000436793
5 *1923:A3 0
6 *1929:C 1.422e-05
7 *1920:X 9.86329e-05
8 *527:38 0.000716989
9 *527:30 0.000443124
10 *527:23 0.000344325
11 *527:17 0.000762754
12 *527:8 0.000257138
13 *1921:B *1619:A 8.32086e-05
14 *1921:B *2250:A 8.8266e-05
15 *1921:B *670:70 0
16 *1921:B *688:87 0
17 *1925:A3 *1925:A1 4.89295e-05
18 *1925:A3 *1925:B1 3.92416e-05
19 *1925:A3 *2121:D 7.98007e-06
20 *1925:A3 *549:55 0.000149535
21 *1925:A3 *549:68 0.000133567
22 *1927:A2 *670:87 9.12494e-06
23 *1927:A2 *670:100 7.03219e-05
24 *527:8 *1929:A 0.000116551
25 *527:8 *636:34 5.83121e-06
26 *527:8 *636:36 8.57321e-05
27 *527:17 *1619:A 0.000114937
28 *527:17 *1929:A 0.000118836
29 *527:17 *636:34 8.05167e-05
30 *527:23 *1924:B1 0.000128213
31 *527:23 *1926:A 0.000148191
32 *527:23 *2285:A 1.6032e-05
33 *527:23 *688:87 0.000315956
34 *527:30 *1923:A1 0.000157394
35 *527:30 *2288:A 0.00010952
36 *527:30 *670:100 0.000418252
37 *1650:B *1925:A3 0
38 *1918:B *1921:B 6.15576e-06
39 *1924:A1 *527:23 9.2058e-05
40 *1929:B *527:8 4.66108e-05
41 *1930:A1 *1925:A3 9.3121e-05
42 *2044:D *527:23 2.14995e-05
43 *2121:SET_B *1925:A3 0.000175279
44 *2121:SET_B *527:38 9.12494e-06
45 *2122:SET_B *527:30 4.36751e-05
46 *2122:SET_B *527:38 2.53083e-05
47 *521:31 *527:8 0.000120655
*RES
1 *1920:X *527:8 4.48 
2 *527:8 *1929:C 1.96 
3 *527:8 *527:17 3.21 
4 *527:17 *527:23 9.97 
5 *527:23 *1923:A3 1.6 
6 *527:23 *527:30 4.245 
7 *527:30 *527:38 5.75 
8 *527:38 *1925:A3 15.22 
9 *527:38 *1930:A2 3.6 
10 *527:30 *1927:A2 6.725 
11 *527:17 *1921:B 11.705 
*END

*D_NET *528 0.0061691
*CONN
*I *1924:A2 I *D sky130_fd_sc_hd__a21oi_2
*I *1922:C I *D sky130_fd_sc_hd__and3_2
*I *1921:Y O *D sky130_fd_sc_hd__nand2_2
*CAP
1 *1924:A2 4.67455e-06
2 *1922:C 0.00136571
3 *1921:Y 0.000412978
4 *528:20 0.00178337
5 *1922:C *1919:A2 7.34572e-05
6 *1922:C *1925:B1 0.000103564
7 *1922:C *2184:A 0
8 *1924:A2 *1923:B1 1.92979e-05
9 *1924:A2 *1929:D 1.05827e-05
10 *528:20 *1907:A1 3.30152e-05
11 *528:20 *1916:B1 0.000282593
12 *528:20 *1917:A1 2.50702e-05
13 *528:20 *1923:B1 1.92979e-05
14 *528:20 *1929:D 0.00030409
15 *528:20 *625:16 9.87009e-05
16 *528:20 *636:20 8.86295e-05
17 *528:20 *636:34 0.00027167
18 *528:20 *670:36 6.29692e-05
19 *528:20 *670:51 0.000179208
20 pcRegister[31] *1922:C 3.67006e-06
21 red[1] *1922:C 0.000255147
22 *1915:B1 *528:20 0.000122325
23 *1922:A *1922:C 2.68464e-05
24 *1922:B *1922:C 3.33059e-05
25 *1924:A1 *528:20 6.95444e-05
26 *2043:D *1922:C 1.1392e-05
27 *2045:D *1922:C 0.000312487
28 *169:79 *528:20 0.000195506
*RES
1 *1921:Y *528:20 16.3275 
2 *528:20 *1922:C 8.75657 
3 *528:20 *1924:A2 3.8325 
*END

*D_NET *529 0.000567347
*CONN
*I *1924:B1 I *D sky130_fd_sc_hd__a21oi_2
*I *1923:X O *D sky130_fd_sc_hd__a31o_2
*CAP
1 *1924:B1 0.000115576
2 *1923:X 0.000115576
3 *1924:B1 *1923:A1 3.27181e-05
4 *1924:B1 *1926:A 3.1191e-05
5 *1924:B1 *2285:A 4.85118e-05
6 *1924:B1 *2288:A 4.77807e-05
7 *2122:SET_B *1924:B1 4.77807e-05
8 *527:23 *1924:B1 0.000128213
*RES
1 *1923:X *1924:B1 10.05 
*END

*D_NET *530 0.00112345
*CONN
*I *1928:B I *D sky130_fd_sc_hd__and2b_2
*I *1925:X O *D sky130_fd_sc_hd__a31o_2
*CAP
1 *1928:B 0.000388786
2 *1925:X 0.000388786
3 *1928:B *1999:A 0
4 *1809:C *1928:B 4.7072e-06
5 *1811:B *1928:B 0
6 *2045:D *1928:B 5.36232e-05
7 *2110:D *1928:B 0.000197826
8 *2110:RESET_B *1928:B 8.97227e-05
*RES
1 *1925:X *1928:B 13.905 
*END

*D_NET *531 0.0027539
*CONN
*I *1927:A3 I *D sky130_fd_sc_hd__a31o_2
*I *1930:A3 I *D sky130_fd_sc_hd__a31o_2
*I *1929:D I *D sky130_fd_sc_hd__nand4_2
*I *1926:X O *D sky130_fd_sc_hd__and2_2
*CAP
1 *1927:A3 0
2 *1930:A3 0.000185038
3 *1929:D 0.000327778
4 *1926:X 0
5 *531:19 0.000346342
6 *531:4 0.000489082
7 *1929:D *1916:A2 8.7152e-06
8 *1929:D *1916:B1 0.000314672
9 *1929:D *1919:A1 9.30637e-06
10 *1929:D *1923:B1 4.44436e-05
11 *1929:D *1926:A 4.12775e-05
12 *1929:D *1927:B1 5.72039e-05
13 *1929:D *2285:A 0.000302118
14 *1930:A3 *1927:B1 0
15 *1930:A3 *1928:A_N 8.06242e-05
16 *1930:A3 *1930:B1 8.53011e-05
17 *531:19 *1927:B1 4.63995e-05
18 *1924:A2 *1929:D 1.05827e-05
19 *2044:D *1929:D 0.000100926
20 *528:20 *1929:D 0.00030409
*RES
1 *1926:X *531:4 1.6 
2 *531:4 *1929:D 14.285 
3 *531:4 *531:19 2.52 
4 *531:19 *1930:A3 5.095 
5 *531:19 *1927:A3 1.6 
*END

*D_NET *532 0.00180471
*CONN
*I *1928:A_N I *D sky130_fd_sc_hd__and2b_2
*I *1927:X O *D sky130_fd_sc_hd__a31o_2
*CAP
1 *1928:A_N 0.000412852
2 *1927:X 0.000412852
3 *1928:A_N *1930:B1 4.89395e-05
4 *1928:A_N *2122:CLK 0.000110411
5 *1928:A_N *2122:D 0.000197191
6 *1650:B *1928:A_N 4.77757e-05
7 *1930:A1 *1928:A_N 4.77807e-05
8 *1930:A3 *1928:A_N 8.06242e-05
9 *2110:RESET_B *1928:A_N 0.00012306
10 *2121:SET_B *1928:A_N 0.000309231
11 *361:12 *1928:A_N 1.39937e-05
*RES
1 *1927:X *1928:A_N 16.38 
*END

*D_NET *533 0.000895025
*CONN
*I *1931:B I *D sky130_fd_sc_hd__and3_2
*I *1929:Y O *D sky130_fd_sc_hd__nand4_2
*CAP
1 *1931:B 0.000200222
2 *1929:Y 0.000200222
3 *1931:B *1916:A1 4.35869e-05
4 *1931:B *2046:CLK 6.72143e-05
5 *1931:B *547:65 0.00021314
6 *1930:A1 *1931:B 4.22675e-05
7 *169:79 *1931:B 0.000119247
8 *521:31 *1931:B 9.12494e-06
*RES
1 *1929:Y *1931:B 10.995 
*END

*D_NET *534 0.00414473
*CONN
*I *1931:C I *D sky130_fd_sc_hd__and3_2
*I *1930:X O *D sky130_fd_sc_hd__a31o_2
*CAP
1 *1931:C 0.00055954
2 *1930:X 0.00055954
3 *1931:C *1650:A 0.000162531
4 *1931:C *1919:B1 2.02052e-05
5 *1931:C *1925:A2 0.000429187
6 *1931:C *1925:B1 0.00146821
7 *1931:C *2011:A 0.000839953
8 *1918:A *1931:C 1.92979e-05
9 *2121:SET_B *1931:C 8.6267e-05
*RES
1 *1930:X *1931:C 12.7604 
*END

*D_NET *535 0.0322404
*CONN
*I *2137:A I *D sky130_fd_sc_hd__clkbuf_8
*I *2135:A I *D sky130_fd_sc_hd__clkbuf_8
*I *2134:A I *D sky130_fd_sc_hd__clkbuf_8
*I *2136:A I *D sky130_fd_sc_hd__clkbuf_8
*I *2128:A I *D sky130_fd_sc_hd__clkbuf_8
*I *2130:A I *D sky130_fd_sc_hd__clkbuf_8
*I *2129:A I *D sky130_fd_sc_hd__clkbuf_8
*I *2127:A I *D sky130_fd_sc_hd__clkbuf_8
*I *2139:A I *D sky130_fd_sc_hd__clkbuf_8
*I *2126:A I *D sky130_fd_sc_hd__clkbuf_8
*I *2125:A I *D sky130_fd_sc_hd__clkbuf_8
*I *2138:A I *D sky130_fd_sc_hd__clkbuf_8
*I *2133:A I *D sky130_fd_sc_hd__clkbuf_8
*I *2124:A I *D sky130_fd_sc_hd__clkbuf_8
*I *2131:A I *D sky130_fd_sc_hd__clkbuf_8
*I *2132:A I *D sky130_fd_sc_hd__clkbuf_8
*I *2123:X O *D sky130_fd_sc_hd__clkbuf_16
*CAP
1 *2137:A 3.55506e-05
2 *2135:A 0
3 *2134:A 0
4 *2136:A 0
5 *2128:A 0
6 *2130:A 1.45943e-05
7 *2129:A 3.4417e-05
8 *2127:A 0
9 *2139:A 0
10 *2126:A 3.12635e-05
11 *2125:A 2.2829e-05
12 *2138:A 0
13 *2133:A 0
14 *2124:A 2.83167e-05
15 *2131:A 9.53498e-05
16 *2132:A 0
17 *2123:X 6.84262e-05
18 *535:351 0.000357389
19 *535:337 0.000341765
20 *535:331 0.000838525
21 *535:326 0.000215544
22 *535:317 0.000166941
23 *535:313 0.000541207
24 *535:296 0.000539818
25 *535:294 0.000195799
26 *535:290 0.00128173
27 *535:285 0.00134056
28 *535:276 0.000188328
29 *535:259 2.67131e-05
30 *535:245 0.000262038
31 *535:239 0.00197323
32 *535:233 0.00235878
33 *535:224 0.000646565
34 *535:215 0.000140946
35 *535:209 0.00046899
36 *535:190 0.000209235
37 *535:176 0.000216604
38 *535:174 0.00114788
39 *535:160 0.000428731
40 *535:154 0.00189086
41 *535:139 0.00068599
42 *535:137 8.64097e-05
43 *535:133 0.000359344
44 *535:106 0.000390161
45 *535:86 0.00043109
46 *535:76 0.00141334
47 *535:63 0.000787875
48 *535:61 0.000143677
49 *535:57 0.000122632
50 *535:43 0.000353002
51 *535:33 0.00144903
52 *535:15 0.00178182
53 *535:13 0.000982012
54 *535:6 0.000178552
55 *2124:A *2063:CLK 3.05267e-05
56 *2126:A *694:53 1.99272e-05
57 *2129:A *1678:A 0.000104457
58 *2129:A *1678:B 2.747e-05
59 *2129:A *541:8 4.66108e-05
60 *2131:A *543:10 8.0272e-05
61 *535:6 *1623:A1 5.83121e-06
62 *535:6 *727:40 7.10578e-05
63 *535:6 *734:44 9.49335e-08
64 *535:13 *734:44 3.42478e-05
65 *535:15 *1621:A1 0
66 *535:15 *1722:A1 3.35508e-05
67 *535:15 *727:40 0
68 *535:15 *731:124 0.00021631
69 *535:15 *734:8 0.000113589
70 *535:15 *734:44 2.25075e-05
71 *535:33 *681:36 0.0003485
72 *535:33 *681:50 2.0851e-06
73 *535:33 *731:124 4.20744e-05
74 *535:33 *735:63 2.55402e-05
75 *535:43 *2141:A 4.88074e-05
76 *535:57 *545:8 5.98486e-05
77 *535:61 *545:8 8.087e-05
78 *535:63 *545:8 6.81301e-05
79 *535:76 *1609:A 6.16131e-05
80 *535:76 *545:8 1.4578e-06
81 *535:86 *1609:A 2.69153e-05
82 *535:86 *1863:A1 1.54318e-05
83 *535:86 *543:10 0.000104362
84 *535:86 *559:16 2.69217e-05
85 *535:106 *1879:A 8.50228e-05
86 *535:106 *559:16 2.23107e-05
87 *535:106 *667:55 0.000138204
88 *535:154 *690:75 0
89 *535:176 *1741:A1 0.000210902
90 *535:176 *2095:CLK 4.36175e-05
91 *535:190 *1741:A1 3.72647e-05
92 *535:190 *2095:CLK 7.46381e-06
93 *535:190 *2174:A 6.04287e-05
94 *535:190 *538:10 3.77958e-05
95 *535:190 *538:12 6.65552e-05
96 *535:209 *711:10 0
97 *535:233 *1821:A 0
98 *535:233 *1823:B 0
99 *535:233 *2117:CLK 0
100 *535:233 *696:38 0.000105031
101 *535:233 *742:23 0
102 *535:245 *1678:C 5.69098e-06
103 *535:245 *2072:CLK 7.89497e-05
104 *535:245 *541:10 1.64141e-05
105 *535:285 *2004:A 4.45445e-05
106 *535:285 *2211:A 0
107 *535:290 *1822:A1 6.20088e-05
108 *535:290 *1822:B1 0.000134938
109 *535:290 *2006:A 0.000126992
110 *535:290 *2114:CLK 2.2923e-05
111 *535:290 *2160:A 2.75145e-05
112 *535:290 *2211:A 1.47347e-05
113 *535:290 *549:12 5.04216e-05
114 *535:290 *549:86 7.29448e-05
115 *535:290 *687:36 0.000135009
116 *535:294 *549:12 4.66525e-05
117 *535:296 *549:12 1.4399e-05
118 *535:296 *740:8 1.23414e-06
119 *535:313 *1803:A2 2.43569e-05
120 *535:313 *548:6 6.72833e-06
121 *535:313 *548:58 9.48278e-05
122 *535:313 *740:8 1.31549e-05
123 *535:317 *2195:A 2.69153e-05
124 *535:326 *2195:A 2.89956e-05
125 *535:337 *1895:B1 6.95998e-05
126 *535:337 *1905:A1 5.01003e-05
127 *535:351 *1906:B1 0
128 *535:351 *1907:A1 7.89689e-05
129 *535:351 *2105:CLK 0
130 *1668:A *2130:A 3.05183e-05
131 *1722:A3 *535:15 3.86607e-05
132 *1743:A1 *2125:A 5.05521e-05
133 *1743:B1 *2125:A 4.80285e-05
134 *1769:A2 *535:33 0.000120758
135 *1771:A *535:76 6.06594e-05
136 *1771:B *535:76 2.49909e-05
137 *1783:A2 *535:15 0
138 *1783:A2 *535:133 5.86378e-05
139 *1788:B1 *535:43 0
140 *1794:C1 *535:176 0
141 *1798:B1 *535:13 3.1835e-05
142 *1798:B1 *535:15 4.20983e-05
143 *1798:B1 *535:209 8.53255e-05
144 *1840:A *535:245 5.18495e-05
145 *1840:A *535:259 3.63701e-06
146 *1857:B1 *535:106 3.63701e-06
147 *1863:A2 *535:106 9.63008e-05
148 *1863:B1 *535:106 0.000297377
149 *1872:B *535:86 0.000126706
150 *1882:B *535:86 6.52347e-05
151 *1882:C *535:86 4.25845e-05
152 *1884:B *535:76 2.69217e-05
153 *1884:B *535:86 5.83121e-06
154 *1884:C *535:86 1.61831e-05
155 *1885:A1 *535:76 1.6418e-05
156 *1913:B1 *535:313 8.02657e-05
157 *2037:D *535:337 4.76437e-05
158 *2050:RESET_B *535:154 7.51913e-05
159 *2052:RESET_B *535:15 8.07403e-05
160 *2052:RESET_B *535:33 4.0423e-05
161 *2059:D *535:15 6.47516e-05
162 *2072:D *535:245 0
163 *2080:D *2130:A 3.05183e-05
164 *2080:D *535:245 0
165 *2086:RESET_B *535:43 0.000123461
166 *2091:D *535:43 0
167 *2101:D *535:209 7.45881e-05
168 *2101:SET_B *535:209 0
169 *2102:D *535:209 0
170 *2104:RESET_B *535:209 0
171 *2105:D *535:351 0
172 *2114:RESET_B *535:290 6.71882e-05
173 *2115:D *535:233 2.21697e-05
174 *2115:RESET_B *535:233 0
175 *2117:RESET_B *535:290 1.17409e-05
176 *2190:A *535:290 1.74678e-05
177 *2220:A *535:313 8.91047e-05
178 *13:12 *535:154 0
179 *383:12 *535:245 2.2016e-05
180 *446:12 *535:33 0.000661143
181 *447:12 *535:76 2.86691e-05
182 *447:18 *535:106 1.37992e-05
183 *450:12 *535:15 8.40105e-05
184 *482:34 *535:86 0
185 *491:23 *535:86 0
186 *491:23 *535:106 0
187 *495:26 *535:86 4.72952e-05
188 *500:10 *535:86 2.25161e-05
189 *504:6 *535:76 8.83758e-05
190 *504:19 *535:76 4.60814e-05
*RES
1 *2123:X *535:6 2.74375 
2 *535:6 *535:13 3.82625 
3 *535:13 *535:15 11.07 
4 *535:15 *535:33 9.82907 
5 *535:33 *535:43 6.57 
6 *535:43 *2132:A 3.6 
7 *535:33 *535:57 2.9675 
8 *535:57 *535:61 1.3125 
9 *535:61 *535:63 1.21875 
10 *535:63 *535:76 11.1263 
11 *535:76 *535:86 10.8663 
12 *535:86 *2131:A 3.44125 
13 *535:76 *535:106 10.88 
14 *535:106 *2124:A 4.095 
15 *535:61 *2133:A 1.6 
16 *535:15 *535:133 6.26 
17 *535:133 *535:137 1.26 
18 *535:137 *535:139 2 
19 *535:139 *535:154 5.2995 
20 *535:154 *535:160 1.52797 
21 *535:160 *2138:A 3.6 
22 *535:154 *535:174 1.87813 
23 *535:174 *535:176 4.0575 
24 *535:176 *2125:A 4.395 
25 *535:174 *535:190 4.0575 
26 *535:190 *2126:A 4.095 
27 *535:137 *2139:A 1.6 
28 *535:13 *535:209 7.5 
29 *535:209 *535:215 2.795 
30 *535:215 *2127:A 1.6 
31 *535:215 *535:224 3.14 
32 *535:224 *535:233 9.2925 
33 *535:233 *535:239 3.89307 
34 *535:239 *535:245 4.6125 
35 *535:245 *2129:A 4.74 
36 *535:239 *535:259 0.2325 
37 *535:259 *2130:A 4.095 
38 *535:233 *535:276 2.795 
39 *535:276 *2128:A 1.6 
40 *535:276 *535:285 2.1825 
41 *535:285 *535:290 19.08 
42 *535:290 *535:294 1.3125 
43 *535:294 *535:296 1.18875 
44 *535:296 *535:313 12.5162 
45 *535:313 *535:317 1.485 
46 *535:317 *2136:A 1.6 
47 *535:317 *535:326 1.5825 
48 *535:326 *535:331 2.0025 
49 *535:331 *535:337 7.79 
50 *535:337 *2134:A 3.6 
51 *535:331 *535:351 7.97 
52 *535:351 *2135:A 3.6 
53 *535:294 *2137:A 2.215 
*END

*D_NET *536 0.00707439
*CONN
*I *2063:CLK I *D sky130_fd_sc_hd__dfrtp_2
*I *2140:A I *D sky130_fd_sc_hd__clkbuf_4
*I *2020:CLK I *D sky130_fd_sc_hd__dfxtp_2
*I *2065:CLK I *D sky130_fd_sc_hd__dfrtp_2
*I *2064:CLK I *D sky130_fd_sc_hd__dfrtp_2
*I *2019:CLK I *D sky130_fd_sc_hd__dfxtp_2
*I *2017:CLK I *D sky130_fd_sc_hd__dfxtp_2
*I *2018:CLK I *D sky130_fd_sc_hd__dfxtp_2
*I *2124:X O *D sky130_fd_sc_hd__clkbuf_8
*CAP
1 *2063:CLK 0.000154316
2 *2140:A 0.00024092
3 *2020:CLK 0.000129685
4 *2065:CLK 7.97093e-05
5 *2064:CLK 2.27766e-05
6 *2019:CLK 0
7 *2017:CLK 0
8 *2018:CLK 0.00024428
9 *2124:X 0.000154316
10 *536:40 2.27766e-05
11 *536:20 0.000597679
12 *536:12 0.000430845
13 *536:10 0.000274248
14 *536:8 0.00063145
15 *536:6 0.000625593
16 *2018:CLK *662:8 2.69217e-05
17 *2020:CLK *1852:A 4.7003e-05
18 *2020:CLK *1852:B 8.23457e-05
19 *2020:CLK *1852:D 0.000313852
20 *2020:CLK *665:6 5.83121e-06
21 *2020:CLK *666:22 0.000232262
22 *2063:CLK *1863:A1 4.82863e-05
23 *2063:CLK *675:16 1.19928e-05
24 *2063:CLK *677:50 2.54431e-05
25 *2063:CLK *679:48 0.000449095
26 *2064:CLK *1854:A 4.90291e-05
27 *2065:CLK *1855:A1 0.000134521
28 *2065:CLK *678:16 7.11365e-05
29 *2140:A *1863:A1 0.000122473
30 *536:8 *1856:B1 0
31 *536:8 *666:41 0
32 *536:8 *667:12 7.3664e-05
33 *536:8 *677:50 0
34 *536:10 *2290:A 0
35 *536:10 *659:14 0
36 *536:10 *666:41 0
37 *536:10 *678:16 2.09074e-05
38 *536:12 *678:16 7.27704e-06
39 *536:12 *678:18 6.45114e-05
40 *536:20 *678:18 1.56261e-05
41 *536:20 *678:20 4.51189e-05
42 *536:20 *678:22 3.98029e-05
43 *1772:A *2063:CLK 8.23457e-05
44 *1848:A *2018:CLK 0.000470757
45 *1848:B *2018:CLK 0.000211818
46 *1848:B *536:20 2.63208e-06
47 *1851:B *536:12 0.000169319
48 *1851:B *536:20 0.000134756
49 *1855:A2 *536:20 0.000104708
50 *1855:B1 *2064:CLK 3.33839e-05
51 *1866:C *2140:A 6.60257e-06
52 *1866:C *536:8 3.18737e-05
53 *2017:D *536:20 1.43717e-05
54 *2018:D *2018:CLK 0.000109428
55 *2020:D *2020:CLK 8.07287e-05
56 *2023:D *2140:A 9.54399e-05
57 *2124:A *2063:CLK 3.05267e-05
58 *482:8 *536:8 0
59 *482:34 *2140:A 0
60 *482:34 *536:8 0
*RES
1 *2124:X *536:6 3.6 
2 *536:6 *536:8 5.97 
3 *536:8 *536:10 1.89 
4 *536:10 *536:12 2.4 
5 *536:12 *536:20 8.21 
6 *536:20 *2018:CLK 9.085 
7 *536:20 *2017:CLK 1.6 
8 *536:12 *536:40 2 
9 *536:40 *2019:CLK 1.6 
10 *536:40 *2064:CLK 2.395 
11 *536:10 *2065:CLK 5.775 
12 *536:8 *2020:CLK 8.535 
13 *536:6 *2140:A 7.785 
14 *2124:X *2063:CLK 7.445 
*END

*D_NET *537 0.00717206
*CONN
*I *2152:A I *D sky130_fd_sc_hd__clkbuf_4
*I *2098:CLK I *D sky130_fd_sc_hd__dfrtp_2
*I *2094:CLK I *D sky130_fd_sc_hd__dfstp_2
*I *2093:CLK I *D sky130_fd_sc_hd__dfrtp_2
*I *2092:CLK I *D sky130_fd_sc_hd__dfrtp_2
*I *2062:CLK I *D sky130_fd_sc_hd__dfrtp_2
*I *2054:CLK I *D sky130_fd_sc_hd__dfrtp_2
*I *2096:CLK I *D sky130_fd_sc_hd__dfrtp_2
*I *2125:X O *D sky130_fd_sc_hd__clkbuf_8
*CAP
1 *2152:A 0.000260089
2 *2098:CLK 0.000131208
3 *2094:CLK 0.000308931
4 *2093:CLK 0
5 *2092:CLK 0.000278462
6 *2062:CLK 0
7 *2054:CLK 0
8 *2096:CLK 0.000358381
9 *2125:X 9.73191e-06
10 *537:69 0.00044014
11 *537:28 0.000667077
12 *537:22 0.000465807
13 *537:14 0.000605606
14 *537:12 0.000252965
15 *537:10 0.000205189
16 *537:8 0.000392078
17 *2092:CLK *1951:A 0.000178555
18 *2094:CLK *1741:A2 0.000179027
19 *2094:CLK *1791:B1 4.66108e-05
20 *2094:CLK *721:14 4.82919e-05
21 *2094:CLK *721:25 0.000235056
22 *2096:CLK *692:31 7.50642e-05
23 *2096:CLK *692:42 8.52233e-05
24 *2098:CLK *1741:B1 5.91029e-05
25 *2098:CLK *721:25 1.54111e-05
26 *2098:CLK *721:36 9.57985e-06
27 *2152:A *1741:A1 0
28 *2152:A *2095:D 0.000157131
29 *2152:A *556:88 0
30 *537:10 *1741:A1 0
31 *537:10 *721:36 5.23362e-05
32 *537:12 *721:14 0
33 *537:12 *721:36 0.000162318
34 *537:14 *1717:C 0.000140905
35 *537:14 *2093:D 3.68682e-05
36 *537:14 *721:36 2.30797e-05
37 *537:28 *1737:A 5.80923e-05
38 *537:28 *1737:B 4.82919e-05
39 *537:28 *692:42 0.000101858
40 *1716:A *537:22 0.000119279
41 *1716:A *537:28 1.61831e-05
42 *1718:B1 *2092:CLK 4.82863e-05
43 *1740:B2 *537:28 5.05521e-05
44 *1743:A1 *537:8 4.82863e-05
45 *1794:B1 *2152:A 1.0183e-05
46 *1794:B1 *537:10 4.62396e-05
47 *1794:B1 *537:14 7.04108e-05
48 *1794:B1 *537:22 8.08153e-06
49 *1794:C1 *2152:A 0.000183608
50 *1794:C1 *537:8 4.82863e-05
51 *2049:RESET_B *2096:CLK 9.05349e-05
52 *2049:RESET_B *537:28 9.59187e-05
53 *2062:D *2092:CLK 2.49909e-05
54 *2062:D *537:22 0.000112123
55 *2062:RESET_B *2092:CLK 1.47347e-05
56 *2096:D *2096:CLK 0
57 *13:12 *2096:CLK 0
58 *349:19 *2152:A 0
59 *407:25 *537:22 9.3062e-06
60 *421:10 *537:28 8.65905e-05
*RES
1 *2125:X *537:8 4.05 
2 *537:8 *537:10 2.145 
3 *537:10 *537:12 1.89 
4 *537:12 *537:14 3.93 
5 *537:14 *537:22 5.3 
6 *537:22 *537:28 8.735 
7 *537:28 *2096:CLK 10.71 
8 *537:28 *2054:CLK 3.6 
9 *537:22 *2062:CLK 1.6 
10 *537:14 *2092:CLK 8.535 
11 *537:12 *2093:CLK 3.6 
12 *537:10 *537:69 2 
13 *537:69 *2094:CLK 7.585 
14 *537:69 *2098:CLK 3.79 
15 *537:8 *2152:A 9.27 
*END

*D_NET *538 0.00811664
*CONN
*I *2016:CLK I *D sky130_fd_sc_hd__dfrtp_2
*I *2097:CLK I *D sky130_fd_sc_hd__dfrtp_2
*I *2015:CLK I *D sky130_fd_sc_hd__dfstp_2
*I *2083:CLK I *D sky130_fd_sc_hd__dfrtp_2
*I *2153:A I *D sky130_fd_sc_hd__clkbuf_4
*I *2050:CLK I *D sky130_fd_sc_hd__dfrtp_2
*I *2056:CLK I *D sky130_fd_sc_hd__dfrtp_2
*I *2095:CLK I *D sky130_fd_sc_hd__dfrtp_2
*I *2126:X O *D sky130_fd_sc_hd__clkbuf_8
*CAP
1 *2016:CLK 0.000393859
2 *2097:CLK 4.6419e-05
3 *2015:CLK 0
4 *2083:CLK 0.000404318
5 *2153:A 0
6 *2050:CLK 0.000398321
7 *2056:CLK 0.000523287
8 *2095:CLK 0.000399581
9 *2126:X 6.63853e-05
10 *538:76 0.000568562
11 *538:65 0.000371892
12 *538:40 0.000802639
13 *538:12 0.00101775
14 *538:10 0.000170724
15 *538:8 0.000385837
16 *2016:CLK *1779:A1 3.03684e-05
17 *2016:CLK *776:8 6.27529e-05
18 *2050:CLK *1735:A1 4.66108e-05
19 *2050:CLK *1735:B1 4.60814e-05
20 *2050:CLK *1945:A 0.000308641
21 *2050:CLK *556:12 5.50389e-05
22 *2050:CLK *571:6 6.52989e-05
23 *2050:CLK *692:78 1.07593e-05
24 *2056:CLK *1796:A 6.05513e-05
25 *2083:CLK *1637:A 6.81824e-05
26 *2083:CLK *1945:A 0.000260249
27 *2097:CLK *2097:D 3.00381e-05
28 *538:8 *694:53 0.000158564
29 *538:65 *1986:A 0
30 *538:65 *565:10 3.26735e-05
31 *538:76 *1986:A 0
32 *1736:A1 *538:65 0.000223713
33 *1778:A2 *538:65 7.16445e-05
34 *1779:B1_N *2016:CLK 8.53089e-05
35 *1794:C1 *2095:CLK 5.25415e-05
36 *1794:C1 *538:10 5.87474e-05
37 *1794:C1 *538:12 7.18346e-05
38 *1794:C1 *538:65 9.16958e-05
39 *2015:D *2016:CLK 4.01778e-05
40 *2015:D *538:65 0
41 *2015:D *538:76 0
42 *2015:SET_B *538:76 0
43 *2056:D *2056:CLK 9.53445e-05
44 *2095:RESET_B *2095:CLK 0.000180983
45 *2097:RESET_B *538:76 0
46 *2170:A *538:65 0
47 *2170:A *538:76 0
48 *2175:A *2056:CLK 0.000119873
49 *346:21 *538:65 3.61777e-05
50 *350:10 *2083:CLK 4.77807e-05
51 *535:176 *2095:CLK 4.36175e-05
52 *535:190 *2095:CLK 7.46381e-06
53 *535:190 *538:10 3.77958e-05
54 *535:190 *538:12 6.65552e-05
*RES
1 *2126:X *538:8 5.085 
2 *538:8 *538:10 1.89 
3 *538:10 *538:12 2.4 
4 *538:12 *2095:CLK 9.96 
5 *538:12 *2056:CLK 11.985 
6 *538:10 *538:40 2 
7 *538:40 *2050:CLK 8.62 
8 *538:40 *2153:A 1.6 
9 *538:40 *2083:CLK 8.275 
10 *538:8 *538:65 6.225 
11 *538:65 *2015:CLK 3.6 
12 *538:65 *538:76 4.145 
13 *538:76 *2097:CLK 2.395 
14 *538:76 *2016:CLK 8.26 
*END

*D_NET *539 0.0102293
*CONN
*I *2078:CLK I *D sky130_fd_sc_hd__dfrtp_2
*I *2101:CLK I *D sky130_fd_sc_hd__dfstp_2
*I *2102:CLK I *D sky130_fd_sc_hd__dfstp_2
*I *2103:CLK I *D sky130_fd_sc_hd__dfrtp_2
*I *2013:CLK I *D sky130_fd_sc_hd__dfstp_2
*I *2142:A I *D sky130_fd_sc_hd__clkbuf_4
*I *2116:CLK I *D sky130_fd_sc_hd__dfrtp_2
*I *2104:CLK I *D sky130_fd_sc_hd__dfrtp_2
*I *2127:X O *D sky130_fd_sc_hd__clkbuf_8
*CAP
1 *2078:CLK 0.000251297
2 *2101:CLK 0
3 *2102:CLK 2.08101e-05
4 *2103:CLK 0
5 *2013:CLK 8.25631e-05
6 *2142:A 0.000720863
7 *2116:CLK 0
8 *2104:CLK 0.000340834
9 *2127:X 0.000270728
10 *539:84 0.000251297
11 *539:63 0.000845834
12 *539:35 0.00100614
13 *539:24 0.000734988
14 *539:20 0.00123794
15 *539:18 0.000714856
16 *539:10 0.000598983
17 *2078:CLK *695:18 8.52845e-05
18 *2078:CLK *695:20 0.000200565
19 *2078:CLK *695:30 0.000197826
20 *2142:A *1654:A 0
21 *2142:A *1820:A 0
22 *2142:A *696:53 0.00011964
23 *539:10 *695:30 0.000206123
24 *539:10 *758:14 0
25 *539:18 *695:30 9.50342e-06
26 *539:18 *708:10 5.36384e-06
27 *539:24 *1621:B1 4.94404e-05
28 *539:24 *711:10 0
29 *539:35 *1821:A 0
30 *539:35 *2160:A 6.31891e-05
31 *539:63 *711:20 3.54025e-05
32 *1799:A2 *539:20 4.99619e-05
33 *1821:C *2142:A 0.000341194
34 *1821:C *539:35 0.000230915
35 *2077:RESET_B *2078:CLK 2.86975e-05
36 *2101:D *539:18 0
37 *2101:D *539:20 0.000123225
38 *2101:SET_B *539:10 0
39 *2101:SET_B *539:18 0
40 *2102:D *539:18 3.45679e-05
41 *2102:SET_B *539:18 0
42 *2103:RESET_B *539:24 0
43 *2103:RESET_B *539:35 0
44 *2104:RESET_B *2104:CLK 2.40101e-05
45 *2104:RESET_B *539:24 5.23362e-05
46 *2104:RESET_B *539:35 0.000118527
47 *2116:D *539:35 5.63318e-05
48 *2393:A *2142:A 0.000390466
49 *337:12 *2104:CLK 0.000204026
50 *341:31 *539:20 0.000166249
51 *341:31 *539:63 2.96426e-05
52 *365:12 *2142:A 4.82863e-05
53 *464:10 *2142:A 0.000126635
54 *464:16 *2142:A 0.000154711
*RES
1 *2127:X *539:10 8.325 
2 *539:10 *539:18 6.26 
3 *539:18 *539:20 5.97 
4 *539:20 *539:24 3.89 
5 *539:24 *2104:CLK 9.57 
6 *539:24 *539:35 6.225 
7 *539:35 *2116:CLK 3.6 
8 *539:35 *2142:A 18.435 
9 *539:20 *539:63 8.88 
10 *539:63 *2013:CLK 2.74 
11 *539:63 *2103:CLK 1.6 
12 *539:18 *2102:CLK 1.96 
13 *539:10 *539:84 2 
14 *539:84 *2101:CLK 1.6 
15 *539:84 *2078:CLK 6.895 
*END

*D_NET *540 0.00875329
*CONN
*I *2074:CLK I *D sky130_fd_sc_hd__dfrtp_2
*I *2067:CLK I *D sky130_fd_sc_hd__dfrtp_2
*I *2066:CLK I *D sky130_fd_sc_hd__dfrtp_2
*I *2113:CLK I *D sky130_fd_sc_hd__dfrtp_2
*I *2111:CLK I *D sky130_fd_sc_hd__dfrtp_2
*I *2112:CLK I *D sky130_fd_sc_hd__dfrtp_2
*I *2143:A I *D sky130_fd_sc_hd__clkbuf_4
*I *2117:CLK I *D sky130_fd_sc_hd__dfrtp_2
*I *2128:X O *D sky130_fd_sc_hd__clkbuf_8
*CAP
1 *2074:CLK 0
2 *2067:CLK 0.000265081
3 *2066:CLK 5.43668e-05
4 *2113:CLK 0
5 *2111:CLK 0.0001634
6 *2112:CLK 0
7 *2143:A 2.22788e-05
8 *2117:CLK 0.000808002
9 *2128:X 6.05634e-05
10 *540:79 0.000509049
11 *540:54 0.000398408
12 *540:48 0.000622053
13 *540:44 0.000677052
14 *540:40 0.000404364
15 *540:21 0.00045878
16 *540:8 0.00100111
17 *2066:CLK *1689:A 2.76356e-05
18 *2067:CLK *673:21 8.57384e-06
19 *2067:CLK *673:34 6.05913e-05
20 *2067:CLK *773:18 0.000176468
21 *2111:CLK *752:10 2.99101e-05
22 *2111:CLK *752:12 0.000114649
23 *2111:CLK *752:16 0.000236052
24 *2117:CLK *1673:A_N 0.000110874
25 *2117:CLK *1823:B 6.81824e-05
26 *2143:A *696:53 4.82863e-05
27 *540:21 *1673:A_N 7.82285e-05
28 *540:21 *696:53 0
29 *540:21 *696:61 2.92496e-05
30 *540:40 *2265:A 0
31 *540:40 *696:61 0.000292066
32 *540:44 *2265:A 1.43521e-05
33 *540:44 *673:10 5.51158e-05
34 *540:44 *696:61 0
35 *540:48 *754:8 0.0002437
36 *540:54 *1653:D_N 1.16578e-05
37 *540:54 *752:16 0.00034224
38 *540:54 *754:48 0.00019227
39 *540:79 *2002:A 9.5799e-06
40 *540:79 *673:10 6.44789e-05
41 *540:79 *696:61 0
42 *540:79 *700:84 0.000180012
43 *540:79 *773:18 0.000192755
44 *1705:B *2067:CLK 3.02745e-05
45 *1705:B *540:79 0.00011852
46 *1812:B *2111:CLK 0.000155489
47 *1815:D *540:54 6.6564e-05
48 *2074:D *540:44 4.91189e-05
49 *2112:D *2111:CLK 9.53898e-05
50 *2115:D *2117:CLK 0.000206501
51 *459:58 *2111:CLK 0
52 *459:58 *540:54 0
53 *535:233 *2117:CLK 0
*RES
1 *2128:X *540:8 4.395 
2 *540:8 *2117:CLK 17.04 
3 *540:8 *540:21 2.655 
4 *540:21 *2143:A 4.05 
5 *540:21 *540:40 7.28 
6 *540:40 *540:44 4.4 
7 *540:44 *540:48 8.66 
8 *540:48 *540:54 8.105 
9 *540:54 *2112:CLK 3.6 
10 *540:54 *2111:CLK 8.58 
11 *540:48 *2113:CLK 1.6 
12 *540:44 *540:79 5.97 
13 *540:79 *2066:CLK 4.395 
14 *540:79 *2067:CLK 8.925 
15 *540:40 *2074:CLK 1.6 
*END

*D_NET *541 0.00723698
*CONN
*I *2072:CLK I *D sky130_fd_sc_hd__dfrtp_2
*I *2080:CLK I *D sky130_fd_sc_hd__dfrtp_2
*I *2144:A I *D sky130_fd_sc_hd__clkbuf_4
*I *2076:CLK I *D sky130_fd_sc_hd__dfrtp_2
*I *2115:CLK I *D sky130_fd_sc_hd__dfrtp_2
*I *2077:CLK I *D sky130_fd_sc_hd__dfrtp_2
*I *2081:CLK I *D sky130_fd_sc_hd__dfrtp_2
*I *2079:CLK I *D sky130_fd_sc_hd__dfrtp_2
*I *2129:X O *D sky130_fd_sc_hd__clkbuf_8
*CAP
1 *2072:CLK 7.90474e-05
2 *2080:CLK 0
3 *2144:A 0
4 *2076:CLK 0
5 *2115:CLK 0.000194867
6 *2077:CLK 0.000274348
7 *2081:CLK 0.000294274
8 *2079:CLK 0.000244707
9 *2129:X 0.000102074
10 *541:65 0.000841922
11 *541:44 0.000986802
12 *541:40 0.0003106
13 *541:36 0.000245202
14 *541:12 0.000653493
15 *541:10 0.000234925
16 *541:8 0.000301534
17 *2077:CLK *1965:A 4.82919e-05
18 *2077:CLK *2161:A 9.07709e-05
19 *2079:CLK *1666:A 4.99619e-05
20 *2079:CLK *1670:B 9.24049e-05
21 *2079:CLK *2161:A 5.05437e-05
22 *2115:CLK *1673:A_N 0.000161467
23 *541:8 *1678:A 0.000113343
24 *541:8 *1678:B 0.000193038
25 *541:12 *1670:B 5.92191e-05
26 *541:12 *1678:C 0
27 *541:40 *2165:A 0.000421227
28 *541:44 *2165:A 6.52265e-05
29 *1664:C *2077:CLK 0.000114483
30 *1668:B *2079:CLK 0
31 *1668:B *541:12 0
32 *1669:A2 *2077:CLK 2.30639e-05
33 *1669:A2 *541:65 3.14077e-05
34 *1673:B *2115:CLK 5.03424e-05
35 *1673:B *541:65 2.09919e-05
36 *1674:B *2115:CLK 4.85428e-05
37 *2076:RESET_B *2077:CLK 0.000131649
38 *2076:RESET_B *541:65 2.94928e-05
39 *2080:D *2072:CLK 0.000156916
40 *2080:D *541:10 0.000131017
41 *2081:D *2081:CLK 5.05437e-05
42 *2129:A *541:8 4.66108e-05
43 *376:12 *2081:CLK 0.000197269
44 *535:245 *2072:CLK 7.89497e-05
45 *535:245 *541:10 1.64141e-05
*RES
1 *2129:X *541:8 6.81 
2 *541:8 *541:10 2.145 
3 *541:10 *541:12 2.145 
4 *541:12 *2079:CLK 8.025 
5 *541:12 *2081:CLK 8.535 
6 *541:10 *541:36 2 
7 *541:36 *541:40 4.95 
8 *541:40 *541:44 3.14 
9 *541:44 *2077:CLK 9.975 
10 *541:44 *541:65 10.055 
11 *541:65 *2115:CLK 5.5 
12 *541:65 *2076:CLK 1.6 
13 *541:40 *2144:A 1.6 
14 *541:36 *2080:CLK 1.6 
15 *541:8 *2072:CLK 5.94 
*END

*D_NET *542 0.00938458
*CONN
*I *2069:CLK I *D sky130_fd_sc_hd__dfrtp_2
*I *2068:CLK I *D sky130_fd_sc_hd__dfrtp_2
*I *2070:CLK I *D sky130_fd_sc_hd__dfrtp_2
*I *2071:CLK I *D sky130_fd_sc_hd__dfrtp_2
*I *2073:CLK I *D sky130_fd_sc_hd__dfrtp_2
*I *2145:A I *D sky130_fd_sc_hd__clkbuf_4
*I *2075:CLK I *D sky130_fd_sc_hd__dfrtp_2
*I *2130:X O *D sky130_fd_sc_hd__clkbuf_8
*CAP
1 *2069:CLK 5.29039e-05
2 *2068:CLK 0.000471052
3 *2070:CLK 0
4 *2071:CLK 0.000402769
5 *2073:CLK 0.000125695
6 *2145:A 0
7 *2075:CLK 0.000365194
8 *2130:X 0.000123228
9 *542:73 0.00112994
10 *542:60 0.000631434
11 *542:43 0.000721177
12 *542:14 0.000502555
13 *542:12 0.000263055
14 *542:10 0.000416185
15 *2068:CLK *764:14 3.112e-05
16 *2069:CLK *764:14 6.12027e-05
17 *2069:CLK *765:60 3.97492e-05
18 *2071:CLK *699:58 6.28687e-05
19 *2071:CLK *700:59 0
20 *2071:CLK *766:14 3.66927e-05
21 *2073:CLK *769:8 0.00042877
22 *2075:CLK *1647:A 0.000119756
23 *2075:CLK *1676:A 0.000271308
24 *2075:CLK *757:24 3.65279e-05
25 *2075:CLK *757:39 9.4087e-05
26 *2075:CLK *769:8 0.000377026
27 *2075:CLK *771:16 0.000118185
28 *542:10 *1693:A 1.70935e-05
29 *542:10 *700:46 0
30 *542:14 *769:8 0.000461941
31 *542:43 *1693:A 4.50017e-05
32 *542:43 *1694:A 7.89767e-05
33 *542:43 *700:46 0
34 *542:43 *700:59 0
35 *542:43 *766:14 5.42473e-05
36 *542:43 *767:25 0
37 *542:60 *766:14 2.76225e-05
38 *542:73 *764:14 9.17869e-05
39 *542:73 *765:10 0
40 *542:73 *765:60 0
41 *542:73 *766:14 1.45386e-05
42 *1668:A *542:10 4.66108e-05
43 *1668:B *542:10 4.9968e-05
44 *1673:B *2075:CLK 2.50251e-05
45 *1676:C *2075:CLK 0
46 *1676:D *2075:CLK 0
47 *1679:A *2075:CLK 8.73389e-06
48 *1681:B1 *2075:CLK 7.15381e-05
49 *1686:B *542:43 0.000140912
50 *1686:B *542:60 6.55336e-05
51 *1686:B *542:73 4.2021e-05
52 *1693:B *542:14 0.0001249
53 *1693:B *542:43 0
54 *1695:B *542:73 6.28765e-05
55 *1696:B *542:73 3.23391e-05
56 *1840:A *542:10 0
57 *2069:RESET_B *542:73 3.32517e-05
58 *2070:D *2071:CLK 7.10578e-05
59 *2071:D *542:43 0
60 *2072:D *2073:CLK 0.000136838
61 *2072:D *542:10 0.000159957
62 *2072:D *542:14 2.49909e-05
63 *385:29 *2075:CLK 0.00026661
64 *389:10 *542:43 0.000118513
65 *389:14 *542:43 0.000229217
*RES
1 *2130:X *542:10 6.45 
2 *542:10 *542:12 2 
3 *542:12 *542:14 4.245 
4 *542:14 *2075:CLK 16.01 
5 *542:14 *2145:A 1.6 
6 *542:12 *2073:CLK 5.86 
7 *542:10 *542:43 7.245 
8 *542:43 *2071:CLK 12.88 
9 *542:43 *542:60 0.87 
10 *542:60 *2070:CLK 3.6 
11 *542:60 *542:73 11.36 
12 *542:73 *2068:CLK 6.805 
13 *542:73 *2069:CLK 6.98 
*END

*D_NET *543 0.00748685
*CONN
*I *2023:CLK I *D sky130_fd_sc_hd__dfxtp_2
*I *2021:CLK I *D sky130_fd_sc_hd__dfxtp_2
*I *2022:CLK I *D sky130_fd_sc_hd__dfxtp_2
*I *2024:CLK I *D sky130_fd_sc_hd__dfxtp_2
*I *2028:CLK I *D sky130_fd_sc_hd__dfxtp_2
*I *2027:CLK I *D sky130_fd_sc_hd__dfxtp_2
*I *2026:CLK I *D sky130_fd_sc_hd__dfxtp_2
*I *2131:X O *D sky130_fd_sc_hd__clkbuf_8
*CAP
1 *2023:CLK 0
2 *2021:CLK 0.00019233
3 *2022:CLK 0.000201805
4 *2024:CLK 2.09808e-05
5 *2028:CLK 0.000241274
6 *2027:CLK 0
7 *2026:CLK 3.39263e-05
8 *2131:X 0.00027131
9 *543:81 0.00019233
10 *543:66 0.000337163
11 *543:37 0.000670361
12 *543:22 0.000878256
13 *543:16 0.000827612
14 *543:10 0.000798057
15 *2021:CLK *1865:A 2.49909e-05
16 *2021:CLK *1865:C 0.000139359
17 *2021:CLK *1865:D 0.000118081
18 *2022:CLK *1865:D 0.000138389
19 *2022:CLK *1867:A 0.000152802
20 *2022:CLK *2296:A 0.000139245
21 *2028:CLK *702:10 4.65515e-05
22 *543:10 *669:10 3.1562e-06
23 *543:16 *669:10 4.11678e-06
24 *543:37 *1875:A1 0
25 *543:37 *686:12 0
26 *543:66 *1865:A 0.00015518
27 *543:66 *2296:A 0.000373804
28 *543:66 *669:10 0.000112907
29 *543:66 *697:14 3.29528e-05
30 pcRegister[10] *543:22 0
31 pcRegister[11] *543:22 0
32 pcRegister[14] *543:37 0
33 pcRegister[15] *543:37 0
34 pcRegister[8] *543:22 0
35 *1860:C *2022:CLK 4.5102e-05
36 *1874:A *543:37 5.53249e-06
37 *1874:B *2028:CLK 0.000574101
38 *1874:B *543:37 2.01565e-05
39 *1875:A2 *543:37 0
40 *1875:B1 *2028:CLK 3.66046e-05
41 *1875:B1 *543:37 1.73792e-05
42 *2022:D *2022:CLK 5.37018e-05
43 *2023:D *2021:CLK 8.34281e-06
44 *2024:D *2022:CLK 0
45 *2024:D *543:16 0.000126467
46 *2024:D *543:66 0
47 *2027:D *2028:CLK 0.000124689
48 *2027:D *543:37 0
49 *2131:A *543:10 8.0272e-05
50 *491:8 *2021:CLK 9.66021e-05
51 *495:26 *543:10 8.65905e-05
52 *535:86 *543:10 0.000104362
*RES
1 *2131:X *543:10 5.965 
2 *543:10 *543:16 5.4 
3 *543:16 *543:22 8.42 
4 *543:22 *2026:CLK 4.05 
5 *543:22 *543:37 8.675 
6 *543:37 *2027:CLK 1.6 
7 *543:37 *2028:CLK 8.74 
8 *543:16 *2024:CLK 1.96 
9 *543:10 *543:66 6.695 
10 *543:66 *2022:CLK 8.34 
11 *543:66 *543:81 2 
12 *543:81 *2021:CLK 5.86 
13 *543:81 *2023:CLK 1.6 
*END

*D_NET *544 0.00934246
*CONN
*I *2061:CLK I *D sky130_fd_sc_hd__dfrtp_2
*I *2100:CLK I *D sky130_fd_sc_hd__dfrtp_2
*I *2099:CLK I *D sky130_fd_sc_hd__dfrtp_2
*I *2087:CLK I *D sky130_fd_sc_hd__dfstp_2
*I *2058:CLK I *D sky130_fd_sc_hd__dfrtp_2
*I *2057:CLK I *D sky130_fd_sc_hd__dfrtp_2
*I *2141:A I *D sky130_fd_sc_hd__clkbuf_4
*I *2089:CLK I *D sky130_fd_sc_hd__dfrtp_2
*I *2132:X O *D sky130_fd_sc_hd__clkbuf_8
*CAP
1 *2061:CLK 0
2 *2100:CLK 0.000260262
3 *2099:CLK 0.000154964
4 *2087:CLK 0
5 *2058:CLK 2.06702e-05
6 *2057:CLK 0.000560455
7 *2141:A 0.000620217
8 *2089:CLK 7.89636e-05
9 *2132:X 0
10 *544:77 0.00019849
11 *544:42 0.000816964
12 *544:40 0.000360374
13 *544:36 0.000445335
14 *544:34 0.000555344
15 *544:6 0.000849215
16 *544:4 0.000647026
17 *2057:CLK *723:8 4.90227e-05
18 *2057:CLK *724:12 1.79536e-05
19 *2057:CLK *731:41 0.000299825
20 *2099:CLK *2157:A 8.35157e-05
21 *2099:CLK *2255:A 4.31979e-05
22 *2099:CLK *731:41 1.08758e-05
23 *2100:CLK *701:24 8.53011e-05
24 *2141:A *1978:A 5.32578e-05
25 *2141:A *2086:CLK 0.000244334
26 *2141:A *737:10 0.000135002
27 *544:34 *1758:A2 7.00066e-05
28 *544:34 *555:84 0
29 *544:34 *732:22 9.16315e-05
30 *544:34 *735:10 2.42236e-05
31 *544:40 *1610:A 0.000282416
32 *544:42 *731:41 7.37657e-05
33 *544:77 *2156:A 1.19928e-05
34 *1720:A2 *2100:CLK 4.77807e-05
35 *1725:A *2100:CLK 2.01934e-05
36 *1725:B *2099:CLK 8.41384e-05
37 *1726:A *2057:CLK 0.000244718
38 *1726:B *2057:CLK 1.31297e-05
39 *1726:B *2099:CLK 4.12775e-05
40 *1726:B *544:40 0.000112732
41 *1727:A1 *2099:CLK 8.52972e-05
42 *1727:A2 *2099:CLK 0.000305697
43 *1728:B1 *2057:CLK 9.65362e-05
44 *1729:A2 *2057:CLK 4.77757e-05
45 *1760:A2 *544:34 6.55328e-05
46 *1760:A3 *544:34 0.00013994
47 *1788:B1 *2141:A 0
48 *1790:A *544:40 2.39751e-05
49 *2057:D *2057:CLK 4.90227e-05
50 *2058:RESET_B *2058:CLK 2.86975e-05
51 *2058:RESET_B *544:77 7.73033e-05
52 *2061:D *2100:CLK 8.41384e-05
53 *2086:RESET_B *2141:A 4.40874e-05
54 *2087:D *544:77 0.000104196
55 *326:6 *2100:CLK 2.0187e-05
56 *410:8 *544:34 4.4073e-05
57 *410:8 *544:36 6.28783e-05
58 *410:8 *544:40 3.75882e-06
59 *413:31 *544:34 8.7002e-05
60 *413:31 *544:36 8.94874e-05
61 *413:31 *544:40 7.77156e-05
62 *415:12 *544:42 4.77769e-05
63 *535:43 *2141:A 4.88074e-05
*RES
1 *2132:X *544:4 1.6 
2 *544:4 *544:6 2.175 
3 *544:6 *2089:CLK 2.74 
4 *544:6 *2141:A 14.255 
5 *544:4 *544:34 11.84 
6 *544:34 *544:36 1.89 
7 *544:36 *544:40 6.185 
8 *544:40 *544:42 1.485 
9 *544:42 *2057:CLK 13.5357 
10 *544:42 *544:77 7.45 
11 *544:77 *2058:CLK 2.05 
12 *544:77 *2087:CLK 1.6 
13 *544:40 *2099:CLK 6.205 
14 *544:36 *2100:CLK 7.86 
15 *544:34 *2061:CLK 3.6 
*END

*D_NET *545 0.00689079
*CONN
*I *2029:CLK I *D sky130_fd_sc_hd__dfxtp_2
*I *2014:CLK I *D sky130_fd_sc_hd__dfrtp_2
*I *2012:CLK I *D sky130_fd_sc_hd__dfrtp_2
*I *2146:A I *D sky130_fd_sc_hd__clkbuf_4
*I *2030:CLK I *D sky130_fd_sc_hd__dfxtp_2
*I *2091:CLK I *D sky130_fd_sc_hd__dfrtp_2
*I *2085:CLK I *D sky130_fd_sc_hd__dfrtp_2
*I *2086:CLK I *D sky130_fd_sc_hd__dfrtp_2
*I *2133:X O *D sky130_fd_sc_hd__clkbuf_8
*CAP
1 *2029:CLK 0.000425897
2 *2014:CLK 0
3 *2012:CLK 0.000212135
4 *2146:A 0.000127477
5 *2030:CLK 9.0143e-05
6 *2091:CLK 0
7 *2085:CLK 0.00039635
8 *2086:CLK 0.000203509
9 *2133:X 0.000132187
10 *545:86 0.000553942
11 *545:75 0.000455564
12 *545:49 0.000454883
13 *545:45 0.000468858
14 *545:29 0.000446143
15 *545:10 0.000341884
16 *545:8 0.000336979
17 *2012:CLK *555:6 6.18237e-05
18 *2012:CLK *555:21 8.85988e-05
19 *2012:CLK *555:55 1.77665e-05
20 *2029:CLK *555:31 0
21 *2085:CLK *2230:A 0.000332216
22 *2085:CLK *735:52 3.72916e-05
23 *2086:CLK *1978:A 7.64501e-05
24 *2086:CLK *2242:A 0
25 *545:8 *1788:B2 2.01565e-05
26 *545:10 *2242:A 0
27 *545:29 *2230:A 1.34594e-05
28 *545:86 *555:31 0
29 *1771:A *2146:A 4.88778e-05
30 *1771:A *545:49 3.46161e-05
31 *1771:B *2146:A 0.000152941
32 *1788:B1 *2086:CLK 0.000135134
33 *1788:B1 *545:10 8.51837e-05
34 *1788:B1 *545:45 7.4549e-05
35 *1887:A1 *545:49 4.77769e-05
36 *1887:A2 *545:45 1.52238e-05
37 *1887:B1 *2030:CLK 2.93836e-05
38 *1887:B1 *2146:A 4.98216e-05
39 *1887:B1 *545:49 2.26545e-05
40 *1888:B *2029:CLK 0
41 *2014:D *2029:CLK 0
42 *2086:D *2086:CLK 5.42473e-05
43 *2091:RESET_B *2085:CLK 4.26581e-05
44 *2141:A *2086:CLK 0.000244334
45 *445:18 *545:8 0.000307977
46 *445:18 *545:45 1.18159e-05
47 *501:14 *2030:CLK 2.65814e-06
48 *506:10 *2029:CLK 0
49 *506:10 *545:49 2.69217e-05
50 *506:10 *545:86 0
51 *535:57 *545:8 5.98486e-05
52 *535:61 *545:8 8.087e-05
53 *535:63 *545:8 6.81301e-05
54 *535:76 *545:8 1.4578e-06
*RES
1 *2133:X *545:8 7.5 
2 *545:8 *545:10 1.89 
3 *545:10 *2086:CLK 9.045 
4 *545:10 *545:29 2.81 
5 *545:29 *2085:CLK 9.31 
6 *545:29 *2091:CLK 1.6 
7 *545:8 *545:45 2.4 
8 *545:45 *545:49 5.9 
9 *545:49 *2030:CLK 3.1 
10 *545:49 *2146:A 8.81 
11 *545:45 *545:75 1.89 
12 *545:75 *2012:CLK 7.5 
13 *545:75 *545:86 2.145 
14 *545:86 *2014:CLK 3.6 
15 *545:86 *2029:CLK 9.99 
*END

*D_NET *546 0.00661074
*CONN
*I *2040:CLK I *D sky130_fd_sc_hd__dfxtp_2
*I *2039:CLK I *D sky130_fd_sc_hd__dfxtp_2
*I *2037:CLK I *D sky130_fd_sc_hd__dfxtp_2
*I *2034:CLK I *D sky130_fd_sc_hd__dfxtp_2
*I *2036:CLK I *D sky130_fd_sc_hd__dfxtp_2
*I *2025:CLK I *D sky130_fd_sc_hd__dfxtp_2
*I *2035:CLK I *D sky130_fd_sc_hd__dfxtp_2
*I *2134:X O *D sky130_fd_sc_hd__clkbuf_8
*CAP
1 *2040:CLK 8.52197e-05
2 *2039:CLK 0.000222184
3 *2037:CLK 0
4 *2034:CLK 0.000214111
5 *2036:CLK 0.000335327
6 *2025:CLK 0.000281297
7 *2035:CLK 8.92119e-05
8 *2134:X 2.8043e-05
9 *546:79 0.000524938
10 *546:16 0.000486681
11 *546:14 0.000591448
12 *546:12 0.000434122
13 *546:10 0.000166323
14 *546:8 0.000331839
15 *2025:CLK *2199:A 0
16 *2034:CLK *1895:A1 0.000121659
17 *2034:CLK *682:42 1.08758e-05
18 *2034:CLK *683:46 7.53779e-06
19 *2035:CLK *2199:A 0
20 *2035:CLK *564:48 4.89295e-05
21 *2036:CLK *1902:A 0.000268753
22 *2036:CLK *2271:A 1.77595e-05
23 *2036:CLK *569:8 6.82429e-05
24 *2040:CLK *2276:A 0
25 *2040:CLK *591:25 7.13843e-05
26 *546:8 *1905:A1 2.49909e-05
27 *546:10 *683:46 9.09788e-06
28 *546:10 *683:57 0.000169465
29 *546:12 *683:46 0.000116709
30 *546:14 *2199:A 0
31 *546:14 *2271:A 8.90199e-05
32 *546:14 *569:27 0
33 *546:14 *683:46 0.000129378
34 *546:16 *2199:A 0
35 *546:16 *683:46 1.42807e-05
36 *546:79 *1911:C 1.18308e-05
37 *546:79 *2274:A 0
38 *546:79 *591:25 0.000106496
39 *546:79 *683:57 0.000179068
40 *1874:A *2025:CLK 4.89295e-05
41 *1895:A2 *2034:CLK 8.30403e-05
42 *1899:B1 *2025:CLK 1.56982e-05
43 *1902:B *2025:CLK 3.86725e-05
44 *1902:B *2035:CLK 5.83121e-06
45 *1905:A2 *2034:CLK 2.59835e-05
46 *2035:D *2025:CLK 0.000451257
47 *2035:D *546:16 5.18694e-05
48 *2036:D *2036:CLK 7.70553e-06
49 *2039:D *2039:CLK 7.79249e-05
50 *2039:D *546:79 0
51 *2040:D *2040:CLK 8.30853e-06
52 *512:51 *2034:CLK 0.000342598
53 *516:14 *2034:CLK 0.000196699
*RES
1 *2134:X *546:8 4.05 
2 *546:8 *546:10 2.145 
3 *546:10 *546:12 1.635 
4 *546:12 *546:14 2.91 
5 *546:14 *546:16 1.89 
6 *546:16 *2035:CLK 5.31 
7 *546:16 *2025:CLK 10.02 
8 *546:14 *2036:CLK 9.615 
9 *546:12 *2034:CLK 9.345 
10 *546:10 *2037:CLK 3.6 
11 *546:8 *546:79 4.695 
12 *546:79 *2039:CLK 6.825 
13 *546:79 *2040:CLK 5.235 
*END

*D_NET *547 0.00716921
*CONN
*I *2046:CLK I *D sky130_fd_sc_hd__dfxtp_2
*I *2045:CLK I *D sky130_fd_sc_hd__dfxtp_2
*I *2044:CLK I *D sky130_fd_sc_hd__dfxtp_2
*I *2108:CLK I *D sky130_fd_sc_hd__dfrtp_2
*I *2043:CLK I *D sky130_fd_sc_hd__dfxtp_2
*I *2041:CLK I *D sky130_fd_sc_hd__dfxtp_2
*I *2042:CLK I *D sky130_fd_sc_hd__dfxtp_2
*I *2147:A I *D sky130_fd_sc_hd__clkbuf_4
*I *2135:X O *D sky130_fd_sc_hd__clkbuf_8
*CAP
1 *2046:CLK 9.97619e-05
2 *2045:CLK 0
3 *2044:CLK 8.83438e-05
4 *2108:CLK 0.000176481
5 *2043:CLK 0.000646306
6 *2041:CLK 0
7 *2042:CLK 4.40053e-05
8 *2147:A 6.46151e-05
9 *2135:X 4.10408e-05
10 *547:71 0.000246842
11 *547:65 0.000479272
12 *547:52 0.000458113
13 *547:39 0.000779494
14 *547:30 0.000134817
15 *547:19 0.0001891
16 *547:8 0.000188501
17 *2043:CLK *625:20 6.26945e-05
18 *2043:CLK *625:24 4.82919e-05
19 *2043:CLK *670:14 8.8149e-05
20 *2043:CLK *670:23 1.17309e-05
21 *2044:CLK *1925:B1 0.000140089
22 *2046:CLK *1916:A1 0.000120181
23 *2147:A *1906:A1 0.000122331
24 *547:8 *1912:B 6.55328e-05
25 *547:19 *1912:B 0.000102935
26 *547:30 *1912:B 2.05661e-05
27 *547:39 *1914:B1 2.8531e-05
28 *547:52 *1914:B1 4.10092e-05
29 *547:52 *1916:A1 2.46271e-05
30 *547:65 *1916:A1 4.91927e-05
31 *547:71 *1916:A1 2.31602e-05
32 *547:71 *2285:A 4.77769e-05
33 pcRegister[31] *547:71 2.49909e-05
34 *1918:A *547:52 3.25831e-05
35 *1918:A *547:65 0.000427697
36 *1918:A *547:71 9.85672e-05
37 *1918:B *547:52 1.80024e-05
38 *1922:A *2044:CLK 0.0001791
39 *1924:A1 *2108:CLK 0.000189894
40 *1931:B *2046:CLK 6.72143e-05
41 *1931:B *547:65 0.00021314
42 *2038:D *547:8 6.55328e-05
43 *2038:D *547:19 0.000107374
44 *2038:D *547:30 9.78876e-05
45 *2038:D *547:39 0.000106955
46 *2038:D *547:52 2.50888e-05
47 *2042:D *2042:CLK 4.80285e-05
48 *2042:D *547:30 0.000136884
49 *2042:D *547:39 0.000216751
50 *2042:D *547:52 8.37299e-05
51 *2043:D *2043:CLK 7.71334e-05
52 *2044:D *2044:CLK 5.42149e-05
53 *2044:D *547:71 7.95969e-05
54 *2045:D *547:71 0.000163165
55 *521:31 *547:65 2.21907e-05
*RES
1 *2135:X *547:8 4.98 
2 *547:8 *2147:A 4.74 
3 *547:8 *547:19 2.4 
4 *547:19 *2042:CLK 4.395 
5 *547:19 *547:30 2.145 
6 *547:30 *2041:CLK 3.6 
7 *547:30 *547:39 2.655 
8 *547:39 *2043:CLK 13.035 
9 *547:39 *547:52 1.89 
10 *547:52 *2108:CLK 6.81 
11 *547:52 *547:65 5.7825 
12 *547:65 *547:71 5.9525 
13 *547:71 *2044:CLK 8.285 
14 *547:71 *2045:CLK 1.6 
15 *547:65 *2046:CLK 5.5575 
*END

*D_NET *548 0.00608653
*CONN
*I *2120:CLK I *D sky130_fd_sc_hd__dfrtp_2
*I *2148:A I *D sky130_fd_sc_hd__clkbuf_4
*I *2038:CLK I *D sky130_fd_sc_hd__dfxtp_2
*I *2105:CLK I *D sky130_fd_sc_hd__dfrtp_2
*I *2118:CLK I *D sky130_fd_sc_hd__dfrtp_2
*I *2119:CLK I *D sky130_fd_sc_hd__dfrtp_2
*I *2033:CLK I *D sky130_fd_sc_hd__dfxtp_2
*I *2032:CLK I *D sky130_fd_sc_hd__dfxtp_2
*I *2136:X O *D sky130_fd_sc_hd__clkbuf_8
*CAP
1 *2120:CLK 0
2 *2148:A 0
3 *2038:CLK 0
4 *2105:CLK 0.000201827
5 *2118:CLK 0.000677135
6 *2119:CLK 3.28975e-05
7 *2033:CLK 0.00012194
8 *2032:CLK 0.000221507
9 *2136:X 5.37173e-05
10 *548:62 0.000294895
11 *548:58 0.000394717
12 *548:36 0.00074708
13 *548:12 0.000545322
14 *548:10 0.000325262
15 *548:8 0.000387989
16 *548:6 5.37173e-05
17 *2032:CLK *1893:A2 2.92496e-05
18 *2032:CLK *1896:D 0.000106716
19 *2032:CLK *2158:A 0.000101317
20 *2032:CLK *561:8 2.75229e-05
21 *2032:CLK *561:61 0.000163019
22 *2032:CLK *682:8 6.42013e-05
23 *2033:CLK *1890:A 4.66108e-05
24 *2033:CLK *2249:A 4.66108e-05
25 *2118:CLK *1655:C 1.34993e-05
26 *2118:CLK *1828:A 0.00026365
27 *2118:CLK *745:6 3.55992e-06
28 *2119:CLK *1828:A 3.5678e-06
29 *548:12 *1893:A2 0.000130714
30 *548:12 *2158:A 7.63204e-05
31 *548:12 *682:34 0
32 *548:12 *688:60 0
33 *548:36 *1828:A 1.83847e-05
34 *548:58 *1803:A1 8.41384e-05
35 *548:58 *1803:A2 9.19853e-05
36 *1828:B *548:12 0.000182401
37 *1892:B *2033:CLK 6.83659e-05
38 *1913:B1 *2105:CLK 6.6925e-05
39 *2032:D *2032:CLK 1.43717e-05
40 *2105:D *2105:CLK 5.39961e-05
41 *2105:RESET_B *2105:CLK 0
42 *2119:D *2118:CLK 4.66108e-05
43 *2119:D *548:12 8.00399e-05
44 *2120:D *548:58 5.78969e-05
45 *2220:A *2105:CLK 0
46 *2220:A *548:58 8.52972e-05
47 *535:313 *548:6 6.72833e-06
48 *535:313 *548:58 9.48278e-05
49 *535:351 *2105:CLK 0
*RES
1 *2136:X *548:6 2.395 
2 *548:6 *548:8 2 
3 *548:8 *548:10 1.38 
4 *548:10 *548:12 4.95 
5 *548:12 *2032:CLK 8.955 
6 *548:12 *2033:CLK 5.775 
7 *548:10 *548:36 2.45 
8 *548:36 *2119:CLK 2.215 
9 *548:36 *2118:CLK 10.255 
10 *548:8 *548:58 8.21 
11 *548:58 *548:62 1.5 
12 *548:62 *2105:CLK 9.23 
13 *548:62 *2038:CLK 1.6 
14 *548:58 *2148:A 1.6 
15 *548:6 *2120:CLK 1.6 
*END

*D_NET *549 0.00809804
*CONN
*I *2114:CLK I *D sky130_fd_sc_hd__dfrtp_2
*I *2149:A I *D sky130_fd_sc_hd__clkbuf_4
*I *2122:CLK I *D sky130_fd_sc_hd__dfstp_2
*I *2110:CLK I *D sky130_fd_sc_hd__dfrtp_2
*I *2121:CLK I *D sky130_fd_sc_hd__dfstp_2
*I *2109:CLK I *D sky130_fd_sc_hd__dfrtp_2
*I *2107:CLK I *D sky130_fd_sc_hd__dfrtp_2
*I *2106:CLK I *D sky130_fd_sc_hd__dfrtp_2
*I *2137:X O *D sky130_fd_sc_hd__clkbuf_8
*CAP
1 *2114:CLK 0.000211579
2 *2149:A 0
3 *2122:CLK 0.000102854
4 *2110:CLK 0
5 *2121:CLK 0
6 *2109:CLK 6.67909e-05
7 *2107:CLK 0
8 *2106:CLK 0.00020129
9 *2137:X 0
10 *549:86 0.000350445
11 *549:68 0.000329349
12 *549:55 0.000521409
13 *549:40 0.00065748
14 *549:16 0.00028743
15 *549:12 0.000822652
16 *549:4 0.000579603
17 *2106:CLK *1802:B 2.95721e-05
18 *2106:CLK *2192:A 5.30673e-05
19 *2109:CLK *749:8 8.34281e-06
20 *2114:CLK *1824:A 4.66108e-05
21 *2114:CLK *2006:A 4.99619e-05
22 *2114:CLK *685:28 8.73147e-06
23 *2114:CLK *687:36 0.000161467
24 *2122:CLK *1999:A 0
25 *549:12 *688:60 0.000432205
26 *549:12 *747:25 8.26527e-05
27 *549:40 *1619:A 3.57924e-05
28 *549:40 *1649:A 8.5225e-05
29 *549:40 *1651:C 0
30 *549:40 *2221:A 9.3062e-06
31 *549:40 *685:51 1.07797e-05
32 *549:40 *688:60 0.000527981
33 *549:40 *747:25 5.11148e-06
34 *549:40 *749:21 0
35 *549:55 *1619:A 0.000112126
36 *549:55 *1650:A 0
37 *549:55 *1925:A1 5.76339e-05
38 *549:55 *2121:D 0.000118081
39 *549:55 *670:70 0
40 *549:55 *749:21 0
41 *549:68 *1925:A1 2.58336e-05
42 *549:68 *1999:A 1.15196e-05
43 *549:86 *687:36 8.64421e-05
44 *1650:B *549:68 0
45 *1825:C *2114:CLK 0.000112799
46 *1913:B1 *2106:CLK 0.000162047
47 *1925:A3 *549:55 0.000149535
48 *1925:A3 *549:68 0.000133567
49 *1928:A_N *2122:CLK 0.000110411
50 *1930:A1 *549:55 0.000128892
51 *2107:D *549:12 5.23362e-05
52 *2107:D *549:16 5.83121e-06
53 *2107:D *549:40 0.000141606
54 *2108:RESET_B *2109:CLK 4.66742e-05
55 *2108:RESET_B *549:40 9.30717e-05
56 *2109:D *2109:CLK 5.83121e-06
57 *2109:D *549:40 9.30717e-05
58 *2110:D *549:68 0.000156474
59 *2114:RESET_B *2114:CLK 0.00030678
60 *2121:SET_B *549:55 4.73456e-05
61 *2220:A *2106:CLK 5.50989e-05
62 *535:290 *2114:CLK 2.2923e-05
63 *535:290 *549:12 5.04216e-05
64 *535:290 *549:86 7.29448e-05
65 *535:294 *549:12 4.66525e-05
66 *535:296 *549:12 1.4399e-05
*RES
1 *2137:X *549:4 1.6 
2 *549:4 *549:12 10.52 
3 *549:12 *549:16 3.14 
4 *549:16 *2106:CLK 9.785 
5 *549:16 *2107:CLK 1.6 
6 *549:12 *549:40 8.265 
7 *549:40 *2109:CLK 4.74 
8 *549:40 *549:55 9.05 
9 *549:55 *2121:CLK 1.6 
10 *549:55 *549:68 6.77 
11 *549:68 *2110:CLK 3.6 
12 *549:68 *2122:CLK 5.49 
13 *549:4 *549:86 2.52 
14 *549:86 *2149:A 1.6 
15 *549:86 *2114:CLK 11.21 
*END

*D_NET *550 0.00823809
*CONN
*I *2150:A I *D sky130_fd_sc_hd__clkbuf_4
*I *2052:CLK I *D sky130_fd_sc_hd__dfrtp_2
*I *2051:CLK I *D sky130_fd_sc_hd__dfrtp_2
*I *2049:CLK I *D sky130_fd_sc_hd__dfrtp_2
*I *2047:CLK I *D sky130_fd_sc_hd__dfrtp_2
*I *2048:CLK I *D sky130_fd_sc_hd__dfrtp_2
*I *2053:CLK I *D sky130_fd_sc_hd__dfrtp_2
*I *2088:CLK I *D sky130_fd_sc_hd__dfrtp_2
*I *2138:X O *D sky130_fd_sc_hd__clkbuf_8
*CAP
1 *2150:A 0.000195776
2 *2052:CLK 0
3 *2051:CLK 0
4 *2049:CLK 0.000446833
5 *2047:CLK 0.000432329
6 *2048:CLK 1.76115e-05
7 *2053:CLK 0
8 *2088:CLK 8.1603e-05
9 *2138:X 0
10 *550:49 0.00105848
11 *550:36 0.000841963
12 *550:18 0.000108588
13 *550:14 0.000780344
14 *550:12 0.000542632
15 *550:10 0.000629975
16 *550:4 0.000391448
17 *2047:CLK *1754:B2 9.24137e-05
18 *2049:CLK *2197:A 0.000113222
19 *2150:A *1949:A 0.000229649
20 *550:10 *1744:A 2.49909e-05
21 *550:10 *1949:A 0.000494337
22 *550:10 *1974:A 0
23 *550:12 *681:32 0
24 *550:12 *728:27 0
25 *550:12 *731:124 0
26 *550:14 *728:27 0
27 *550:14 *731:124 0
28 *550:36 *731:109 2.69217e-05
29 *550:36 *731:124 9.32375e-05
30 *1762:A *550:10 1.38662e-05
31 *1762:B *550:10 8.52972e-05
32 *1763:B2 *550:10 7.24973e-05
33 *1763:B2 *550:12 9.24127e-05
34 *1768:A1 *2047:CLK 7.95407e-05
35 *1769:A1 *550:10 4.9736e-05
36 *1769:A2 *550:10 2.02052e-05
37 *1769:B1 *550:10 8.78323e-05
38 *1769:B1 *550:12 0.000130065
39 *2049:D *2049:CLK 4.22574e-05
40 *2051:D *550:12 3.89528e-05
41 *2061:RESET_B *550:14 4.4073e-05
42 *2061:RESET_B *550:36 6.52906e-05
43 *2100:RESET_B *550:36 0.000115945
44 *427:32 *2150:A 0.000159329
45 *427:32 *550:10 2.62725e-05
46 *433:20 *2047:CLK 0.000245428
47 *435:12 *550:36 0.000156269
48 *435:12 *550:49 1.54665e-05
49 *436:33 *550:10 9.49997e-05
*RES
1 *2138:X *550:4 1.6 
2 *550:4 *550:10 9.08 
3 *550:10 *550:12 8.265 
4 *550:12 *550:14 2.145 
5 *550:14 *550:18 2.45 
6 *550:18 *2088:CLK 2.74 
7 *550:18 *2053:CLK 1.6 
8 *550:14 *550:36 13.595 
9 *550:36 *2048:CLK 1.96 
10 *550:36 *550:49 2.295 
11 *550:49 *2047:CLK 13.58 
12 *550:49 *2049:CLK 11.885 
13 *550:12 *2051:CLK 3.6 
14 *550:10 *2052:CLK 3.6 
15 *550:4 *2150:A 6.535 
*END

*D_NET *551 0.00895787
*CONN
*I *2055:CLK I *D sky130_fd_sc_hd__dfrtp_2
*I *2082:CLK I *D sky130_fd_sc_hd__dfstp_2
*I *2090:CLK I *D sky130_fd_sc_hd__dfrtp_2
*I *2151:A I *D sky130_fd_sc_hd__clkbuf_4
*I *2060:CLK I *D sky130_fd_sc_hd__dfrtp_2
*I *2031:CLK I *D sky130_fd_sc_hd__dfxtp_2
*I *2059:CLK I *D sky130_fd_sc_hd__dfrtp_2
*I *2084:CLK I *D sky130_fd_sc_hd__dfrtp_2
*I *2139:X O *D sky130_fd_sc_hd__clkbuf_8
*CAP
1 *2055:CLK 0.000139727
2 *2082:CLK 0
3 *2090:CLK 0
4 *2151:A 0
5 *2060:CLK 0
6 *2031:CLK 0.000461092
7 *2059:CLK 0.000342531
8 *2084:CLK 0
9 *2139:X 6.11031e-05
10 *551:78 0.00023279
11 *551:69 0.000512575
12 *551:33 0.000897528
13 *551:24 0.00036781
14 *551:18 0.000858952
15 *551:12 0.000608873
16 *551:10 0.000504441
17 *2031:CLK *1628:B 0.000154488
18 *2031:CLK *1629:B 4.89295e-05
19 *2059:CLK *1616:A 0.000199833
20 *2059:CLK *1632:A1 0.000186065
21 *2059:CLK *1721:A1 0.000108031
22 *2059:CLK *2185:A 4.82863e-05
23 *551:12 *1941:A 4.66108e-05
24 *551:18 *1783:B2 4.60814e-05
25 *551:18 *1941:A 0.000157394
26 *551:18 *727:6 6.04372e-05
27 *551:24 *1973:A 0.000346165
28 *551:24 *555:80 2.21074e-05
29 *551:33 *1628:B 8.53113e-06
30 *551:33 *779:10 0.00013521
31 *551:69 *1941:A 0.000310423
32 *551:69 *1979:A 4.77719e-05
33 *551:69 *690:75 0.000174145
34 *551:69 *694:77 0.00027405
35 *551:78 *694:77 9.09788e-06
36 *1627:C *2059:CLK 9.80943e-06
37 *1630:B2 *2031:CLK 1.77595e-05
38 *1632:A2 *2031:CLK 8.6099e-05
39 *1632:A2 *2059:CLK 1.2818e-05
40 *1632:A2 *551:33 1.70935e-05
41 *1632:B1 *2059:CLK 5.83121e-06
42 *1775:A2 *551:24 0.000197858
43 *1775:B1 *551:24 6.6699e-05
44 *1775:B1 *551:33 1.38867e-05
45 *1783:A2 *551:10 0.000113097
46 *1783:B1 *2059:CLK 7.49327e-05
47 *2052:RESET_B *551:18 4.77769e-05
48 *2060:D *2059:CLK 0.000111293
49 *2084:D *551:33 0
50 *2090:D *2055:CLK 5.99925e-05
51 *2090:D *551:78 9.24127e-05
52 *332:6 *2059:CLK 0.000650898
53 *340:30 *551:24 0
54 *340:30 *551:33 0
55 *342:10 *2031:CLK 8.53113e-06
*RES
1 *2139:X *551:10 6.98 
2 *551:10 *551:12 0.45 
3 *551:12 *551:18 9.45 
4 *551:18 *551:24 8.735 
5 *551:24 *2084:CLK 3.6 
6 *551:24 *551:33 2.145 
7 *551:33 *2059:CLK 13.71 
8 *551:33 *2031:CLK 11.46 
9 *551:18 *2060:CLK 1.6 
10 *551:12 *2151:A 1.6 
11 *551:10 *551:69 10.625 
12 *551:69 *2090:CLK 3.6 
13 *551:69 *551:78 2.145 
14 *551:78 *2082:CLK 3.6 
15 *551:78 *2055:CLK 5.94 
*END

*D_NET *552 0.00704369
*CONN
*I *1736:A2 I *D sky130_fd_sc_hd__o31a_2
*I *1735:A1 I *D sky130_fd_sc_hd__o21a_2
*I *1791:A2 I *D sky130_fd_sc_hd__a21o_2
*I *1737:B I *D sky130_fd_sc_hd__nand2_2
*I *1611:A I *D sky130_fd_sc_hd__inv_2
*I *1748:A I *D sky130_fd_sc_hd__or3b_2
*I *2094:Q O *D sky130_fd_sc_hd__dfstp_2
*CAP
1 *1736:A2 0.000215586
2 *1735:A1 1.17698e-05
3 *1791:A2 0
4 *1737:B 0.000219981
5 *1611:A 0
6 *1748:A 0.000107024
7 *2094:Q 0.000324249
8 *552:62 0.000761459
9 *552:29 0.000283853
10 *552:23 0.000732902
11 *552:12 0.000566199
12 *1735:A1 *571:6 4.77807e-05
13 *1736:A2 *1612:A 0.000199821
14 *1736:A2 *1633:A 8.53113e-06
15 *1736:A2 *1633:C 4.66108e-05
16 *1736:A2 *1734:A 9.12857e-06
17 *1736:A2 *1736:B1 4.66108e-05
18 *1736:A2 *1944:A 0.000142832
19 *1736:A2 *694:67 9.47869e-05
20 *1737:B *1737:A 6.77501e-05
21 *1737:B *553:8 5.16418e-05
22 *1737:B *553:34 0.000109016
23 *1737:B *692:59 8.65905e-05
24 *552:23 *1748:C_N 0.000113255
25 *552:29 *553:34 0
26 *552:29 *692:59 0.000208484
27 *552:62 *1734:A 1.72184e-05
28 *552:62 *1741:A2 0.000268271
29 *552:62 *1748:C_N 1.91597e-05
30 *552:62 *1791:B1 0.000237242
31 *552:62 *1796:A 9.60974e-05
32 *552:62 *1843:A1 0.000310017
33 *552:62 *553:34 4.35432e-05
34 *552:62 *556:14 1.15688e-05
35 *552:62 *556:20 8.52172e-05
36 *552:62 *692:59 0
37 *1735:A2 *1736:A2 6.79482e-05
38 *1735:A2 *552:62 9.12494e-06
39 *1736:A1 *1736:A2 5.42468e-05
40 *1743:A3 *552:62 3.81133e-05
41 *1749:A2 *552:12 0.000141599
42 *1755:B1 *552:12 5.65627e-05
43 *1765:B *552:12 8.09021e-06
44 *1793:B *552:62 0.000208937
45 *1797:C1 *552:12 0.000271341
46 *2049:RESET_B *1737:B 8.23457e-05
47 *2050:CLK *1735:A1 4.66108e-05
48 *2056:RESET_B *552:62 4.7604e-05
49 *2175:A *552:62 0
50 *13:12 *1737:B 0
51 *13:12 *552:29 0.000142323
52 *426:22 *552:62 0.000273695
53 *430:8 *1748:A 2.65814e-06
54 *537:28 *1737:B 4.82919e-05
*RES
1 *2094:Q *552:12 11.285 
2 *552:12 *1748:A 3.1 
3 *552:12 *552:23 2.175 
4 *552:23 *552:29 6.655 
5 *552:29 *1611:A 1.6 
6 *552:29 *1737:B 10.46 
7 *552:23 *1791:A2 1.6 
8 *552:23 *552:62 16.37 
9 *552:62 *1735:A1 4.05 
10 *552:62 *1736:A2 9.54 
*END

*D_NET *553 0.00271014
*CONN
*I *1737:A I *D sky130_fd_sc_hd__nand2_2
*I *1791:A1 I *D sky130_fd_sc_hd__a21o_2
*I *1748:C_N I *D sky130_fd_sc_hd__or3b_2
*I *2235:A I *D sky130_fd_sc_hd__dlygate4sd3_1
*I *1739:A I *D sky130_fd_sc_hd__nor2_2
*I *2049:Q O *D sky130_fd_sc_hd__dfrtp_2
*CAP
1 *1737:A 0.000193335
2 *1791:A1 2.08101e-05
3 *1748:C_N 0.00011851
4 *2235:A 2.51931e-05
5 *1739:A 0.00015286
6 *2049:Q 0
7 *553:34 0.000351646
8 *553:8 0.000284111
9 *553:6 0.000318383
10 *553:4 0.000193335
11 *2235:A *701:24 4.66108e-05
12 *553:34 *1791:B1 4.82863e-05
13 *553:34 *692:42 0
14 *553:34 *692:59 6.52906e-05
15 *1737:B *1737:A 6.77501e-05
16 *1737:B *553:8 5.16418e-05
17 *1737:B *553:34 0.000109016
18 *2049:RESET_B *1737:A 4.66108e-05
19 *2049:RESET_B *1739:A 0.000179071
20 *2049:RESET_B *553:8 0.000203627
21 *2093:RESET_B *553:34 0
22 *13:12 *553:8 0
23 *537:28 *1737:A 5.80923e-05
24 *552:23 *1748:C_N 0.000113255
25 *552:29 *553:34 0
26 *552:62 *1748:C_N 1.91597e-05
27 *552:62 *553:34 4.35432e-05
*RES
1 *2049:Q *553:4 1.6 
2 *553:4 *553:6 2 
3 *553:6 *553:8 2.655 
4 *553:8 *1739:A 6.195 
5 *553:8 *2235:A 4.05 
6 *553:6 *553:34 6.56 
7 *553:34 *1748:C_N 3.775 
8 *553:34 *1791:A1 1.96 
9 *553:4 *1737:A 4.495 
*END

*D_NET *554 0.00330506
*CONN
*I *2198:A I *D sky130_fd_sc_hd__dlygate4sd3_1
*I *1754:B2 I *D sky130_fd_sc_hd__a221o_2
*I *1723:A1 I *D sky130_fd_sc_hd__a21oi_2
*I *2047:Q O *D sky130_fd_sc_hd__dfrtp_2
*CAP
1 *2198:A 0
2 *1754:B2 0.000275378
3 *1723:A1 0.000387192
4 *2047:Q 0.000161219
5 *554:16 0.000885135
6 *554:12 0.000383783
7 *1723:A1 *1751:A_N 4.99619e-05
8 *1723:A1 *1751:B 0.000259517
9 *1723:A1 *1768:B1 0.000201503
10 *1754:B2 *557:22 0.000123649
11 *1754:B2 *689:17 7.17015e-05
12 *554:16 *1768:B1 0.000122801
13 *1768:A1 *1723:A1 6.90876e-05
14 *1768:A1 *1754:B2 0.000161256
15 *2047:CLK *1754:B2 9.24137e-05
16 *2047:RESET_B *1754:B2 4.88074e-05
17 *411:8 *1723:A1 1.16578e-05
*RES
1 *2047:Q *554:12 8.03 
2 *554:12 *554:16 3.57 
3 *554:16 *1723:A1 8.965 
4 *554:16 *1754:B2 11.9487 
5 *554:12 *2198:A 1.6 
*END

*D_NET *555 0.00989731
*CONN
*I *1782:B I *D sky130_fd_sc_hd__nand2b_2
*I *1712:A1 I *D sky130_fd_sc_hd__a31o_2
*I *1774:A2 I *D sky130_fd_sc_hd__a21boi_2
*I *1719:B I *D sky130_fd_sc_hd__and3_2
*I *1775:A1 I *D sky130_fd_sc_hd__a21oi_2
*I *1628:A I *D sky130_fd_sc_hd__nand3_2
*I *1627:A I *D sky130_fd_sc_hd__and3_2
*I *1773:A I *D sky130_fd_sc_hd__and2_2
*I *2012:Q O *D sky130_fd_sc_hd__dfrtp_2
*CAP
1 *1782:B 0.000144581
2 *1712:A1 0.000480117
3 *1774:A2 4.32179e-05
4 *1719:B 0.000221052
5 *1775:A1 1.27666e-05
6 *1628:A 0.000245733
7 *1627:A 5.90354e-05
8 *1773:A 0.00017331
9 *2012:Q 0.000344784
10 *555:86 0.000303671
11 *555:84 0.0007524
12 *555:80 0.000959969
13 *555:55 0.000885887
14 *555:31 0.00061216
15 *555:21 0.000767108
16 *555:6 0.000687196
17 *1628:A *1628:B 9.23945e-05
18 *1628:A *779:10 4.1652e-06
19 *1712:A1 *1712:A3 4.77719e-05
20 *1719:B *1719:A 7.46156e-05
21 *1719:B *1719:C 2.20732e-05
22 *1719:B *1720:B1_N 7.44453e-05
23 *1719:B *732:22 4.82863e-05
24 *1773:A *1788:B2 0
25 *1774:A2 *579:12 4.66108e-05
26 *1775:A1 *1973:A 9.12671e-06
27 *1775:A1 *681:50 7.32813e-06
28 *1782:B *1980:A 0.000123225
29 *555:31 *1627:B 8.52845e-05
30 *555:55 *1933:A 9.09732e-05
31 *555:55 *1973:A 2.93707e-05
32 *555:55 *681:50 5.12969e-06
33 *555:80 *1973:A 1.54665e-05
34 *555:80 *1978:A 0
35 *555:80 *1980:A 0.000123225
36 *555:80 *681:50 0
37 *555:80 *735:10 0
38 *555:80 *735:52 0.000115254
39 *555:80 *735:63 0.000130488
40 *555:84 *1758:A2 0
41 *555:84 *1980:A 0.000172527
42 *555:86 *1720:B1_N 1.71013e-05
43 *555:86 *1758:A2 0
44 *555:86 *1980:A 1.82476e-05
45 *555:86 *732:22 0
46 *1629:A *1628:A 7.14511e-05
47 *1632:B1 *555:31 6.20972e-05
48 *1760:A1 *555:80 0.000204352
49 *1760:A2 *555:80 5.33085e-05
50 *1760:A2 *555:84 0
51 *1760:B1 *555:80 6.68891e-05
52 *1775:A2 *555:80 4.77769e-05
53 *1775:B1 *1628:A 8.38498e-06
54 *1776:B *1627:A 1.42807e-05
55 *1776:B *555:31 0.000235199
56 *1776:B *555:55 2.20014e-05
57 *1788:B1 *1773:A 8.35106e-05
58 *1831:A *1712:A1 1.4399e-05
59 *1831:A *1719:B 6.36656e-05
60 *1887:A1 *1773:A 8.53011e-05
61 *2012:CLK *555:6 6.18237e-05
62 *2012:CLK *555:21 8.85988e-05
63 *2012:CLK *555:55 1.77665e-05
64 *2012:D *1773:A 3.64998e-06
65 *2012:D *555:31 1.5996e-05
66 *2012:RESET_B *555:6 5.12336e-05
67 *2029:CLK *555:31 0
68 *2085:D *555:80 9.57611e-05
69 *2091:RESET_B *555:80 0
70 *2183:A *1712:A1 1.17309e-05
71 *2183:A *1774:A2 0.000120655
72 *345:12 *1627:A 6.23541e-06
73 *345:12 *555:31 4.86642e-05
74 *413:31 *1712:A1 0.00019003
75 *413:31 *1719:B 8.08153e-06
76 *441:8 *1782:B 1.19928e-05
77 *445:18 *1773:A 6.42647e-05
78 *449:12 *555:80 0
79 *544:34 *555:84 0
80 *545:86 *555:31 0
81 *551:24 *555:80 2.21074e-05
*RES
1 *2012:Q *555:6 5.845 
2 *555:6 *1773:A 8.72 
3 *555:6 *555:21 2.175 
4 *555:21 *555:31 12.435 
5 *555:31 *1627:A 4.215 
6 *555:31 *1628:A 7.23 
7 *555:21 *555:55 3.915 
8 *555:55 *1775:A1 1.96 
9 *555:55 *555:80 15.91 
10 *555:80 *555:84 6.95 
11 *555:84 *555:86 0.87 
12 *555:86 *1719:B 8.115 
13 *555:86 *1774:A2 4.74 
14 *555:84 *1712:A1 9.57 
15 *555:80 *1782:B 3.7 
*END

*D_NET *556 0.0105241
*CONN
*I *1637:A I *D sky130_fd_sc_hd__and2_2
*I *1638:A I *D sky130_fd_sc_hd__nand2_2
*I *1717:A I *D sky130_fd_sc_hd__nand3_2
*I *1793:A I *D sky130_fd_sc_hd__nand2_2
*I *1734:A I *D sky130_fd_sc_hd__nand2_2
*I *1843:A2 I *D sky130_fd_sc_hd__a21boi_2
*I *1796:B I *D sky130_fd_sc_hd__and3_2
*I *1766:B1_N I *D sky130_fd_sc_hd__a21boi_2
*I *1797:A1 I *D sky130_fd_sc_hd__a211o_2
*I *2050:Q O *D sky130_fd_sc_hd__dfrtp_2
*CAP
1 *1637:A 0.000122833
2 *1638:A 2.57944e-05
3 *1717:A 0
4 *1793:A 0.00018377
5 *1734:A 5.68607e-05
6 *1843:A2 0.000630135
7 *1796:B 0
8 *1766:B1_N 0.000350405
9 *1797:A1 1.41956e-05
10 *2050:Q 0.000671311
11 *556:106 0.000259227
12 *556:88 0.000535884
13 *556:82 0.00107731
14 *556:31 0.000549786
15 *556:20 0.000360111
16 *556:14 0.000253999
17 *556:12 0.000820101
18 *1734:A *1734:B 0.000190853
19 *1734:A *1843:A1 8.33066e-06
20 *1766:B1_N *1796:C 7.23602e-05
21 *1793:A *1717:B 5.14739e-05
22 *1793:A *1718:A1 8.65961e-05
23 *1793:A *2093:D 4.9253e-06
24 *556:12 *1735:B1 4.66108e-05
25 *556:12 *692:78 8.23457e-05
26 *556:14 *1734:B 0.000322291
27 *556:14 *1843:A1 0.000308715
28 *556:20 *1734:B 5.16418e-05
29 *556:20 *1796:A 2.0514e-05
30 *556:20 *692:78 5.92191e-05
31 *556:31 *1796:A 2.10034e-05
32 *556:88 *1717:B 4.82863e-05
33 *556:88 *1718:A1 2.30292e-05
34 *556:88 *2162:A 0
35 *556:88 *694:27 0
36 *556:88 *694:38 0
37 *556:106 *694:38 0
38 *556:106 *694:53 0
39 *1637:B *1637:A 0.000171875
40 *1637:B *556:106 9.12494e-06
41 *1735:A2 *1734:A 0.000136052
42 *1736:A2 *1734:A 9.12857e-06
43 *1766:A1 *1766:B1_N 2.10152e-05
44 *1766:A2 *1766:B1_N 0.000288664
45 *1793:B *1793:A 4.00541e-06
46 *1794:A2 *1793:A 8.87364e-05
47 *1794:A2 *556:88 0.000468933
48 *1794:B1 *556:88 0
49 *1797:A2 *556:20 0.000162311
50 *1797:B1 *1797:A1 1.85674e-05
51 *1797:B1 *556:31 9.52646e-05
52 *2050:CLK *556:12 5.50389e-05
53 *2050:D *1766:B1_N 8.51879e-05
54 *2050:D *556:12 0.00023875
55 *2083:CLK *1637:A 6.81824e-05
56 *2095:RESET_B *556:82 0.000367034
57 *2098:D *556:88 9.5433e-05
58 *2152:A *556:88 0
59 *2175:A *1843:A2 2.87433e-05
60 *2175:A *556:82 0.000235573
61 *13:12 *1766:B1_N 0
62 *349:19 *556:88 9.37731e-05
63 *349:19 *556:106 0.000219117
64 *351:10 *1637:A 0.000113222
65 *351:10 *1638:A 1.79174e-05
66 *444:8 *1766:B1_N 8.53113e-06
67 *552:62 *1734:A 1.72184e-05
68 *552:62 *556:14 1.15688e-05
69 *552:62 *556:20 8.52172e-05
*RES
1 *2050:Q *556:12 12.45 
2 *556:12 *556:14 3.93 
3 *556:14 *556:20 5.72 
4 *556:20 *1797:A1 1.96 
5 *556:20 *556:31 2.79 
6 *556:31 *1766:B1_N 11.675 
7 *556:31 *1796:B 1.6 
8 *556:14 *1843:A2 3.8775 
9 *556:12 *1734:A 6 
10 *1843:A2 *556:82 12.705 
11 *556:82 *556:88 9.95 
12 *556:88 *1793:A 5.53 
13 *556:88 *1717:A 1.6 
14 *556:82 *556:106 2.655 
15 *556:106 *1638:A 4.05 
16 *556:106 *1637:A 6.885 
*END

*D_NET *557 0.00370812
*CONN
*I *2197:A I *D sky130_fd_sc_hd__dlygate4sd3_1
*I *1754:A1 I *D sky130_fd_sc_hd__a221o_2
*I *1724:A1 I *D sky130_fd_sc_hd__a21oi_2
*I *2048:Q O *D sky130_fd_sc_hd__dfrtp_2
*CAP
1 *2197:A 0.00030299
2 *1754:A1 0
3 *1724:A1 0.000381655
4 *2048:Q 0.000238402
5 *557:22 0.000692031
6 *557:14 0.000851768
7 *1724:A1 *1724:B1 7.40338e-05
8 *1724:A1 *689:17 0.000165089
9 *2197:A *701:24 9.00151e-05
10 *557:14 *1937:A 1.9291e-05
11 *557:14 *2258:A 4.38721e-06
12 *557:14 *689:6 4.77757e-05
13 *557:14 *689:44 7.40635e-05
14 *557:22 *689:6 0.000160319
15 *557:22 *689:17 6.83734e-05
16 *1752:A2 *1724:A1 1.87602e-05
17 *1754:B2 *557:22 0.000123649
18 *2047:RESET_B *557:22 4.77757e-05
19 *2048:RESET_B *557:14 8.15223e-05
20 *2049:CLK *2197:A 0.000113222
21 *412:8 *1724:A1 1.14192e-05
22 *434:12 *1724:A1 0.000141582
*RES
1 *2048:Q *557:14 10.115 
2 *557:14 *557:22 5.07 
3 *557:22 *1724:A1 12.275 
4 *557:22 *1754:A1 1.6 
5 *557:14 *2197:A 11.525 
*END

*D_NET *558 0.00152593
*CONN
*I *2168:A I *D sky130_fd_sc_hd__clkdlybuf4s25_1
*I *2253:X O *D sky130_fd_sc_hd__clkdlybuf4s25_1
*CAP
1 *2168:A 0.000371689
2 *2253:X 0.000371689
3 *2168:A *2163:A 0
4 *2168:A *2259:A 0.000198352
5 *2168:A *691:21 0.000135139
6 *2168:A *691:36 4.82919e-05
7 *2168:A *701:24 3.64998e-06
8 mem_addr[5] *2168:A 0.000397116
*RES
1 *2253:X *2168:A 15.435 
*END

*D_NET *559 0.00562904
*CONN
*I *2267:A I *D sky130_fd_sc_hd__clkdlybuf4s25_1
*I *1609:A I *D sky130_fd_sc_hd__inv_2
*I *1884:A I *D sky130_fd_sc_hd__and3_2
*I *2030:Q O *D sky130_fd_sc_hd__dfxtp_2
*CAP
1 *2267:A 0.000941751
2 *1609:A 0.000365852
3 *1884:A 0
4 *2030:Q 0
5 *559:16 0.000481444
6 *559:6 0.00105734
7 *1609:A *1871:A 3.64998e-06
8 *1609:A *1871:B 0.000122331
9 *1609:A *1879:B 0.000131393
10 *1609:A *1881:A 0.000162325
11 *1609:A *2240:A 9.50342e-06
12 *2267:A *1879:A 2.94467e-05
13 *2267:A *1888:A 2.05056e-05
14 *2267:A *2180:A 4.77719e-05
15 *2267:A *679:112 0.000251033
16 *2267:A *686:27 0.000381468
17 *2267:A *703:10 0
18 *2267:A *704:10 4.83593e-05
19 *2267:A *704:12 0.000101359
20 *559:16 *1879:A 1.31414e-05
21 *1871:C *1609:A 2.77283e-05
22 *1872:B *2267:A 0.000165461
23 *1872:B *559:16 6.90254e-05
24 *1878:C *2267:A 3.93101e-05
25 *1880:B *559:16 4.23392e-05
26 *1883:A2 *2267:A 8.97486e-05
27 *1884:B *2267:A 9.12494e-06
28 *1884:B *559:16 7.1624e-05
29 *1884:C *1609:A 7.40446e-05
30 *1884:C *559:16 4.99619e-05
31 *1886:B *1609:A 0.000175329
32 *2025:D *2267:A 0.000102404
33 *2028:D *2267:A 0.000121815
34 *447:12 *1609:A 8.23457e-05
35 *447:18 *1609:A 3.49693e-05
36 *491:23 *559:16 4.28112e-06
37 *492:43 *1609:A 2.88234e-05
38 *495:26 *1609:A 3.96284e-05
39 *499:12 *2267:A 4.80285e-05
40 *504:6 *1609:A 4.66108e-05
41 *535:76 *1609:A 6.16131e-05
42 *535:86 *1609:A 2.69153e-05
43 *535:86 *559:16 2.69217e-05
44 *535:106 *559:16 2.23107e-05
*RES
1 *2030:Q *559:6 3.6 
2 *559:6 *559:16 4.895 
3 *559:16 *1884:A 1.6 
4 *559:16 *1609:A 18.33 
5 *559:6 *2267:A 21.915 
*END

*D_NET *560 0.00458031
*CONN
*I *1891:B I *D sky130_fd_sc_hd__and3_2
*I *2268:A I *D sky130_fd_sc_hd__clkdlybuf4s25_1
*I *2193:A I *D sky130_fd_sc_hd__dlygate4sd3_1
*I *1608:A I *D sky130_fd_sc_hd__inv_2
*I *2031:Q O *D sky130_fd_sc_hd__dfxtp_2
*CAP
1 *1891:B 0
2 *2268:A 0.000730806
3 *2193:A 5.44866e-05
4 *1608:A 0.000152689
5 *2031:Q 4.16082e-05
6 *560:34 0.000925706
7 *560:19 0.000352213
8 *560:8 0.000297123
9 *1608:A *672:10 7.23533e-05
10 *2193:A *1888:A 0.000122331
11 *2268:A *1898:A1 0.000387896
12 *2268:A *2158:A 0.000272978
13 *2268:A *2233:A 0.000161897
14 *2268:A *561:37 0.000162318
15 *2268:A *672:10 0
16 *560:19 *1889:A1 2.67022e-05
17 *560:19 *1891:A 0
18 *560:19 *672:10 0.000227543
19 *560:34 *1891:A 0
20 *560:34 *561:16 0.000239807
21 *560:34 *561:37 0
22 *560:34 *672:10 7.06865e-05
23 *1881:B *1608:A 5.53249e-06
24 *1888:B *1608:A 2.33678e-05
25 *1888:B *2193:A 1.16578e-05
26 *1891:C *560:19 0
27 *1892:B *2268:A 3.09164e-05
28 *1892:C *2268:A 8.49205e-05
29 *1898:A2 *2268:A 3.96737e-05
30 *2031:D *560:8 1.56428e-05
31 *504:19 *1608:A 0
32 *504:19 *560:19 0
33 *506:10 *1608:A 6.9451e-05
*RES
1 *2031:Q *560:8 4.05 
2 *560:8 *1608:A 7.02 
3 *560:8 *560:19 2.655 
4 *560:19 *2193:A 4.74 
5 *560:19 *560:34 5.045 
6 *560:34 *2268:A 19.34 
7 *560:34 *1891:B 1.6 
*END

*D_NET *561 0.00767322
*CONN
*I *1893:A2 I *D sky130_fd_sc_hd__a31o_2
*I *2249:A I *D sky130_fd_sc_hd__dlygate4sd3_1
*I *1896:C I *D sky130_fd_sc_hd__and4_2
*I *2269:A I *D sky130_fd_sc_hd__clkdlybuf4s25_1
*I *1891:A I *D sky130_fd_sc_hd__and3_2
*I *2032:Q O *D sky130_fd_sc_hd__dfxtp_2
*CAP
1 *1893:A2 8.61836e-05
2 *2249:A 0.000224787
3 *1896:C 0
4 *2269:A 0.000818741
5 *1891:A 0.000121258
6 *2032:Q 0.000229278
7 *561:61 0.000361851
8 *561:37 0.00118821
9 *561:16 0.000732941
10 *561:8 0.000522377
11 *1891:A *1888:A 7.35813e-05
12 *1891:A *2200:A 0
13 *1893:A2 *1890:B 4.38051e-05
14 *1893:A2 *1893:A3 4.28396e-05
15 *2249:A *1890:A 2.16917e-05
16 *2269:A *1896:B 8.65961e-05
17 *2269:A *1896:D 3.00381e-05
18 *2269:A *2270:A 0.00105776
19 *561:16 *1888:A 0.000387896
20 *561:16 *1890:B 0.000116165
21 *561:16 *2158:A 3.47837e-05
22 *561:16 *672:10 8.68803e-05
23 *561:37 *1896:B 3.83041e-05
24 *561:37 *1896:D 0.000171437
25 *561:61 *1890:B 0.000200648
26 *561:61 *2158:A 1.73877e-05
27 pcRegister[17] *2269:A 0
28 *1892:B *561:37 4.31189e-05
29 *2032:CLK *1893:A2 2.92496e-05
30 *2032:CLK *561:8 2.75229e-05
31 *2032:CLK *561:61 0.000163019
32 *2033:CLK *2249:A 4.66108e-05
33 *2268:A *561:37 0.000162318
34 *509:10 *561:37 7.70938e-05
35 *509:21 *561:37 5.83373e-05
36 *548:12 *1893:A2 0.000130714
37 *560:19 *1891:A 0
38 *560:34 *1891:A 0
39 *560:34 *561:16 0.000239807
40 *560:34 *561:37 0
*RES
1 *2032:Q *561:8 6.12 
2 *561:8 *561:16 10.72 
3 *561:16 *1891:A 5.61 
4 *561:16 *561:37 9.185 
5 *561:37 *2269:A 17.9 
6 *561:37 *1896:C 1.6 
7 *561:8 *561:61 2.4 
8 *561:61 *2249:A 6.825 
9 *561:61 *1893:A2 5.94 
*END

*D_NET *562 0.00567878
*CONN
*I *1895:A1 I *D sky130_fd_sc_hd__a21oi_2
*I *2225:A I *D sky130_fd_sc_hd__dlygate4sd3_1
*I *1893:A1 I *D sky130_fd_sc_hd__a31o_2
*I *2270:A I *D sky130_fd_sc_hd__clkdlybuf4s25_1
*I *1896:B I *D sky130_fd_sc_hd__and4_2
*I *2033:Q O *D sky130_fd_sc_hd__dfxtp_2
*CAP
1 *1895:A1 0.000133702
2 *2225:A 0.000133702
3 *1893:A1 0.00048752
4 *2270:A 0.000288665
5 *1896:B 0.000127982
6 *2033:Q 7.42426e-05
7 *562:40 0.000633767
8 *562:10 0.000527429
9 *562:8 0.000331271
10 *1893:A1 *1893:A3 4.82919e-05
11 *1893:A1 *1894:A1 4.99619e-05
12 *1893:A1 *2271:A 0.000133809
13 *1893:A1 *563:12 2.59926e-05
14 *1895:A1 *1895:B1 8.33066e-06
15 *1895:A1 *2271:A 0.000120655
16 *1895:A1 *682:44 9.14613e-05
17 *1896:B *564:8 0
18 *1896:B *564:12 0
19 *2270:A *1896:D 0
20 *2270:A *1900:B1 0.000198051
21 *2270:A *2199:A 5.13692e-05
22 *562:8 *2256:A 3.64998e-06
23 *562:10 *564:8 0
24 *562:40 *2256:A 5.65627e-05
25 *1894:A2 *1893:A1 4.82863e-05
26 *1894:B1_N *1893:A1 0.000137609
27 *1895:A2 *1895:A1 0.000123225
28 *1897:B *1895:A1 0.000139245
29 *1902:B *2270:A 8.62153e-05
30 *2034:CLK *1895:A1 0.000121659
31 *2034:D *1895:A1 3.03684e-05
32 *2034:D *562:40 5.4003e-05
33 *2269:A *1896:B 8.65961e-05
34 *2269:A *2270:A 0.00105776
35 *509:21 *562:10 0
36 *509:21 *562:40 0
37 *512:6 *2270:A 7.53005e-05
38 *512:8 *2270:A 9.29046e-05
39 *512:14 *2270:A 4.60584e-05
40 *512:38 *562:40 0
41 *512:51 *1895:A1 1.48307e-05
42 *561:37 *1896:B 3.83041e-05
*RES
1 *2033:Q *562:8 4.395 
2 *562:8 *562:10 1.635 
3 *562:10 *1896:B 5.355 
4 *562:10 *2270:A 14.19 
5 *562:8 *562:40 4.655 
6 *562:40 *1893:A1 9.43 
7 *562:40 *2225:A 1.6 
8 *2225:A *1895:A1 11.625 
*END

*D_NET *563 0.00492795
*CONN
*I *2195:A I *D sky130_fd_sc_hd__dlygate4sd3_1
*I *1896:A I *D sky130_fd_sc_hd__and4_2
*I *2271:A I *D sky130_fd_sc_hd__clkdlybuf4s25_1
*I *2034:Q O *D sky130_fd_sc_hd__dfxtp_2
*CAP
1 *2195:A 0.000241133
2 *1896:A 0.000246755
3 *2271:A 0.000976846
4 *2034:Q 0
5 *563:12 0.0013289
6 *563:6 0.000346437
7 *1896:A *1896:D 0.000238919
8 *1896:A *682:21 0
9 *1896:A *682:34 0
10 *2195:A *682:34 0
11 *2271:A *1894:A1 3.00381e-05
12 *2271:A *1902:A 2.20732e-05
13 *2271:A *1903:C 5.99393e-05
14 *2271:A *2273:A 1.52352e-05
15 *2271:A *569:8 8.40269e-05
16 *2271:A *569:31 5.21561e-05
17 *2271:A *683:25 5.13899e-05
18 *563:12 *682:34 0
19 *1892:B *1896:A 3.68769e-05
20 *1893:A1 *2271:A 0.000133809
21 *1893:A1 *563:12 2.59926e-05
22 *1894:A2 *2271:A 2.75145e-05
23 *1894:B1_N *563:12 7.00889e-06
24 *1895:A1 *2271:A 0.000120655
25 *1895:A2 *1896:A 5.23362e-05
26 *1895:A2 *563:12 3.18137e-05
27 *1902:C *2271:A 0
28 *1905:A2 *2271:A 0.000196669
29 *2033:D *1896:A 9.71067e-05
30 *2036:CLK *2271:A 1.77595e-05
31 *2105:RESET_B *2195:A 2.41231e-05
32 *509:21 *1896:A 0.0003175
33 *535:317 *2195:A 2.69153e-05
34 *535:326 *2195:A 2.89956e-05
35 *546:14 *2271:A 8.90199e-05
*RES
1 *2034:Q *563:6 3.6 
2 *563:6 *563:12 3.92 
3 *563:12 *2271:A 21.47 
4 *563:12 *1896:A 11.96 
5 *563:6 *2195:A 7.5 
*END

*D_NET *564 0.00520929
*CONN
*I *2272:A I *D sky130_fd_sc_hd__clkdlybuf4s25_1
*I *1903:C I *D sky130_fd_sc_hd__and4_2
*I *1901:B I *D sky130_fd_sc_hd__and3_2
*I *1900:A1 I *D sky130_fd_sc_hd__a21oi_2
*I *2233:A I *D sky130_fd_sc_hd__dlygate4sd3_1
*I *1898:A1 I *D sky130_fd_sc_hd__a21oi_2
*I *2035:Q O *D sky130_fd_sc_hd__dfxtp_2
*CAP
1 *2272:A 0.000299332
2 *1903:C 7.38481e-05
3 *1901:B 0
4 *1900:A1 0
5 *2233:A 5.62515e-05
6 *1898:A1 9.2962e-05
7 *2035:Q 0.000746918
8 *564:57 0.000401633
9 *564:48 0.000697509
10 *564:12 0.000296705
11 *564:8 0.000225354
12 *1898:A1 *1899:A1 6.69341e-05
13 *1903:C *1903:B 0.000187742
14 *1903:C *569:31 4.66108e-05
15 *2272:A *1903:A 4.63352e-05
16 *2272:A *569:27 2.84864e-05
17 *2272:A *580:21 0.000119351
18 *564:12 *1898:B1 0
19 *564:48 *1902:A 9.21064e-05
20 *564:48 *2199:A 9.51621e-05
21 *564:48 *569:27 5.97296e-05
22 *564:48 *683:10 0.000237249
23 *564:57 *569:27 4.9367e-05
24 pcRegister[20] *2272:A 0
25 pcRegister[20] *564:57 0
26 *1896:B *564:8 0
27 *1896:B *564:12 0
28 *1898:A2 *1898:A1 8.65905e-05
29 *1899:B1 *1898:A1 2.16917e-05
30 *1901:C *1903:C 1.52352e-05
31 *1902:B *564:48 0.000106246
32 *1902:C *564:48 8.78088e-05
33 *1905:A2 *1903:C 0.000197826
34 *2035:CLK *564:48 4.89295e-05
35 *2035:D *564:48 5.01066e-05
36 *2268:A *1898:A1 0.000387896
37 *2268:A *2233:A 0.000161897
38 *2271:A *1903:C 5.99393e-05
39 *512:38 *564:8 6.55406e-05
40 *562:10 *564:8 0
*RES
1 *2035:Q *564:8 5.235 
2 *564:8 *564:12 3.89 
3 *564:12 *1898:A1 5.155 
4 *564:12 *2233:A 3.085 
5 *564:8 *1900:A1 3.6 
6 *2035:Q *564:48 14.235 
7 *564:48 *1901:B 3.6 
8 *564:48 *564:57 0.615 
9 *564:57 *1903:C 6.48 
10 *564:57 *2272:A 9.39 
*END

*D_NET *565 0.00166156
*CONN
*I *1842:A2 I *D sky130_fd_sc_hd__a21oi_2
*I *1736:B1 I *D sky130_fd_sc_hd__o31a_2
*I *2169:X O *D sky130_fd_sc_hd__dlygate4sd3_1
*CAP
1 *1842:A2 0
2 *1736:B1 0.000176925
3 *2169:X 0.000199492
4 *565:10 0.000376417
5 *1736:B1 *1633:A 4.82863e-05
6 *1736:B1 *1633:C 5.30022e-05
7 *1736:B1 *1986:A 6.02165e-05
8 *565:10 *1986:A 5.21636e-05
9 *565:10 *2169:A 8.43862e-05
10 *565:10 *725:6 2.75145e-05
11 *1736:A1 *1736:B1 0.000422585
12 *1736:A1 *565:10 3.07421e-05
13 *1736:A2 *1736:B1 4.66108e-05
14 *346:8 *1736:B1 5.05437e-05
15 *538:65 *565:10 3.26735e-05
*RES
1 *2169:X *565:10 7.065 
2 *565:10 *1736:B1 8.7 
3 *565:10 *1842:A2 3.6 
*END

*D_NET *566 0.00022557
*CONN
*I *2097:D I *D sky130_fd_sc_hd__dfrtp_2
*I *2170:X O *D sky130_fd_sc_hd__dlygate4sd3_1
*CAP
1 *2097:D 9.77662e-05
2 *2170:X 9.77662e-05
3 *2097:CLK *2097:D 3.00381e-05
*RES
1 *2170:X *2097:D 4.685 
*END

*D_NET *567 0.00085532
*CONN
*I *1905:A1 I *D sky130_fd_sc_hd__o21a_2
*I *2171:X O *D sky130_fd_sc_hd__dlygate4sd3_1
*CAP
1 *1905:A1 0.000381387
2 *2171:X 0.000381387
3 *1905:A2 *1905:A1 9.12494e-06
4 *516:14 *1905:A1 8.33066e-06
5 *535:337 *1905:A1 5.01003e-05
6 *546:8 *1905:A1 2.49909e-05
*RES
1 *2171:X *1905:A1 12.045 
*END

*D_NET *568 0.00301629
*CONN
*I *1855:A1 I *D sky130_fd_sc_hd__o21a_2
*I *2172:X O *D sky130_fd_sc_hd__dlygate4sd3_1
*CAP
1 *1855:A1 0.000937436
2 *2172:X 0.000937436
3 *1855:A1 *2294:A 0.000244093
4 *1855:A1 *678:16 0.000101283
5 *1851:C *1855:A1 0.000122821
6 *2020:D *1855:A1 0.000449424
7 *2065:CLK *1855:A1 0.000134521
8 *2065:D *1855:A1 8.92729e-05
*RES
1 *2172:X *1855:A1 23.925 
*END

*D_NET *569 0.00411491
*CONN
*I *1903:B I *D sky130_fd_sc_hd__and4_2
*I *1901:A I *D sky130_fd_sc_hd__and3_2
*I *2273:A I *D sky130_fd_sc_hd__clkdlybuf4s25_1
*I *2199:A I *D sky130_fd_sc_hd__dlygate4sd3_1
*I *2036:Q O *D sky130_fd_sc_hd__dfxtp_2
*CAP
1 *1903:B 3.30754e-05
2 *1901:A 0
3 *2273:A 0.000591315
4 *2199:A 0.000295918
5 *2036:Q 0.000229102
6 *569:31 0.00065729
7 *569:27 0.000177692
8 *569:8 0.000603662
9 *1903:B *1903:A 8.64488e-05
10 *2199:A *1902:A 0.000116158
11 *2273:A *1911:A 0
12 *2273:A *2274:A 0
13 pcRegister[20] *2273:A 0
14 pcRegister[22] *2273:A 0.000106105
15 pcRegister[23] *2273:A 0
16 *1901:C *1903:B 6.41962e-05
17 *1901:C *569:31 2.49909e-05
18 *1902:B *2199:A 4.91189e-05
19 *1902:C *2199:A 4.01535e-05
20 *1902:C *569:27 9.14049e-05
21 *1903:C *1903:B 0.000187742
22 *1903:C *569:31 4.66108e-05
23 *1910:B *2273:A 0.000210151
24 *2025:CLK *2199:A 0
25 *2035:CLK *2199:A 0
26 *2036:CLK *569:8 6.82429e-05
27 *2039:D *2273:A 0
28 *2270:A *2199:A 5.13692e-05
29 *2271:A *2273:A 1.52352e-05
30 *2271:A *569:8 8.40269e-05
31 *2271:A *569:31 5.21561e-05
32 *2272:A *569:27 2.84864e-05
33 *546:14 *2199:A 0
34 *546:14 *569:27 0
35 *546:16 *2199:A 0
36 *564:48 *2199:A 9.51621e-05
37 *564:48 *569:27 5.97296e-05
38 *564:57 *569:27 4.9367e-05
*RES
1 *2036:Q *569:8 6.465 
2 *569:8 *2199:A 9.645 
3 *569:8 *569:27 3.635 
4 *569:27 *569:31 1.5 
5 *569:31 *2273:A 16.235 
6 *569:31 *1901:A 1.6 
7 *569:27 *1903:B 3.43 
*END

*D_NET *570 0.00266218
*CONN
*I *1913:A1 I *D sky130_fd_sc_hd__o21a_2
*I *2173:X O *D sky130_fd_sc_hd__dlygate4sd3_1
*CAP
1 *1913:A1 0.000636876
2 *2173:X 0.000636876
3 *1913:A1 *1917:A2 2.23589e-05
4 *1913:A1 *2279:A 8.52052e-05
5 *1913:A1 *625:16 8.30552e-05
6 *1913:A1 *625:77 0.000210411
7 *1908:A2 *1913:A1 6.71882e-05
8 *1910:B *1913:A1 0.000121641
9 *1913:A2 *1913:A1 0.000114179
10 *2041:D *1913:A1 0.000272235
11 *516:42 *1913:A1 0.000412154
*RES
1 *2173:X *1913:A1 17.705 
*END

*D_NET *571 0.00131473
*CONN
*I *1843:A1 I *D sky130_fd_sc_hd__a21boi_2
*I *1735:B1 I *D sky130_fd_sc_hd__o21a_2
*I *2174:X O *D sky130_fd_sc_hd__dlygate4sd3_1
*CAP
1 *1843:A1 0.000107233
2 *1735:B1 2.86564e-05
3 *2174:X 3.28917e-05
4 *571:6 0.000168781
5 *1735:B1 *692:78 1.91597e-05
6 *1843:A1 *692:78 5.19006e-06
7 *571:6 *692:78 0.000119982
8 *1734:A *1843:A1 8.33066e-06
9 *1735:A1 *571:6 4.77807e-05
10 *2050:CLK *1735:B1 4.60814e-05
11 *2050:CLK *571:6 6.52989e-05
12 *552:62 *1843:A1 0.000310017
13 *556:12 *1735:B1 4.66108e-05
14 *556:14 *1843:A1 0.000308715
*RES
1 *2174:X *571:6 3.085 
2 *571:6 *1735:B1 2.395 
3 *571:6 *1843:A1 9.635 
*END

*D_NET *572 0.000524288
*CONN
*I *2095:D I *D sky130_fd_sc_hd__dfrtp_2
*I *2175:X O *D sky130_fd_sc_hd__dlygate4sd3_1
*CAP
1 *2095:D 0.000166625
2 *2175:X 0.000166625
3 *2152:A *2095:D 0.000157131
4 *349:19 *2095:D 3.39064e-05
*RES
1 *2175:X *2095:D 9.81 
*END

*D_NET *573 0.000282689
*CONN
*I *1830:A I *D sky130_fd_sc_hd__xnor2_2
*I *2176:X O *D sky130_fd_sc_hd__dlygate4sd3_1
*CAP
1 *1830:A 6.0611e-05
2 *2176:X 6.0611e-05
3 *1830:A *1803:B1 0.000161467
*RES
1 *2176:X *1830:A 4.685 
*END

*D_NET *574 0.00215731
*CONN
*I *1863:A1 I *D sky130_fd_sc_hd__o21a_2
*I *2177:X O *D sky130_fd_sc_hd__dlygate4sd3_1
*CAP
1 *1863:A1 0.000317968
2 *2177:X 0.000317968
3 *1863:A1 *1867:A 8.65961e-05
4 *1863:A1 *677:50 0.000250093
5 *1863:A1 *679:48 0.000278573
6 *1866:C *1863:A1 0.000134249
7 *2021:D *1863:A1 9.71067e-05
8 *2023:D *1863:A1 0.000264278
9 *2063:CLK *1863:A1 4.82863e-05
10 *2140:A *1863:A1 0.000122473
11 *482:34 *1863:A1 0
12 *491:23 *1863:A1 0.000175999
13 *495:26 *1863:A1 4.82919e-05
14 *535:86 *1863:A1 1.54318e-05
*RES
1 *2177:X *1863:A1 18.03 
*END

*D_NET *575 0.000495039
*CONN
*I *1641:B1 I *D sky130_fd_sc_hd__a21oi_2
*I *2178:X O *D sky130_fd_sc_hd__dlygate4sd3_1
*CAP
1 *1641:B1 0.000184935
2 *2178:X 0.000184935
3 *1641:B1 *1935:A 0.000115582
4 mem_addr[24] *1641:B1 9.58678e-06
5 *1643:A1 *1641:B1 0
*RES
1 *2178:X *1641:B1 10.41 
*END

*D_NET *576 0.000532039
*CONN
*I *2083:D I *D sky130_fd_sc_hd__dfrtp_2
*I *2179:X O *D sky130_fd_sc_hd__dlygate4sd3_1
*CAP
1 *2083:D 0.000119015
2 *2179:X 0.000119015
3 *2083:D *701:74 6.33376e-05
4 *1641:A2 *2083:D 0.000135568
5 *1642:B1 *2083:D 9.51046e-05
*RES
1 *2179:X *2083:D 10.365 
*END

*D_NET *577 0.00237334
*CONN
*I *1868:A1 I *D sky130_fd_sc_hd__o21ai_2
*I *1869:A1 I *D sky130_fd_sc_hd__a21oi_2
*I *2180:X O *D sky130_fd_sc_hd__dlygate4sd3_1
*CAP
1 *1868:A1 0
2 *1869:A1 0.000283137
3 *2180:X 0.000251501
4 *577:10 0.000534638
5 *1869:A1 *1870:B1 0.000197243
6 *1869:A1 *1873:A 0.000405428
7 *1869:A1 *2210:A 8.64599e-05
8 *1869:A1 *702:12 9.50342e-06
9 *577:10 *1875:A1 4.85763e-05
10 *577:10 *679:112 0.000142852
11 *577:10 *686:27 8.70195e-05
12 *577:10 *702:12 0.000129742
13 *1869:B1 *1869:A1 0.000197243
14 *496:54 *1869:A1 0
15 *496:54 *577:10 0
*RES
1 *2180:X *577:10 8.445 
2 *577:10 *1869:A1 11.145 
3 *577:10 *1868:A1 3.6 
*END

*D_NET *578 0.0013269
*CONN
*I *1666:A I *D sky130_fd_sc_hd__xnor2_2
*I *2181:X O *D sky130_fd_sc_hd__dlygate4sd3_1
*CAP
1 *1666:A 0.000464131
2 *2181:X 0.000464131
3 *1666:A *1970:A 0.0001249
4 *1666:A *700:21 0
5 *1666:A *761:14 9.4087e-05
6 *1668:A *1666:A 9.50342e-06
7 *1668:B *1666:A 0.000120186
8 *2079:CLK *1666:A 4.99619e-05
*RES
1 *2181:X *1666:A 13.515 
*END

*D_NET *579 0.00176049
*CONN
*I *1774:A1 I *D sky130_fd_sc_hd__a21boi_2
*I *1720:B1_N I *D sky130_fd_sc_hd__a21boi_2
*I *2182:X O *D sky130_fd_sc_hd__dlygate4sd3_1
*CAP
1 *1774:A1 0
2 *1720:B1_N 0.000227486
3 *2182:X 0.000163573
4 *579:12 0.000391059
5 *1720:B1_N *1980:A 0.000480134
6 *1720:B1_N *2157:A 5.21091e-05
7 *579:12 *681:8 8.53113e-06
8 *579:12 *681:19 0.000109995
9 *1719:B *1720:B1_N 7.44453e-05
10 *1774:A2 *579:12 4.66108e-05
11 *1790:C_N *1720:B1_N 4.08568e-05
12 *1831:A *1720:B1_N 0
13 *2061:D *1720:B1_N 0
14 *2088:RESET_B *579:12 6.55406e-05
15 *2183:A *579:12 8.30487e-05
16 *413:31 *1720:B1_N 0
17 *555:86 *1720:B1_N 1.71013e-05
*RES
1 *2182:X *579:12 9.155 
2 *579:12 *1720:B1_N 11.825 
3 *579:12 *1774:A1 1.6 
*END

*D_NET *580 0.00192349
*CONN
*I *2274:A I *D sky130_fd_sc_hd__clkdlybuf4s25_1
*I *2171:A I *D sky130_fd_sc_hd__dlygate4sd3_1
*I *1903:A I *D sky130_fd_sc_hd__and4_2
*I *2037:Q O *D sky130_fd_sc_hd__dfxtp_2
*CAP
1 *2274:A 0.000142672
2 *2171:A 3.34843e-05
3 *1903:A 7.8598e-05
4 *2037:Q 0.000305353
5 *580:21 0.000312256
6 *580:8 0.00052005
7 *2274:A *1910:A 0.000122801
8 *2274:A *1911:A 7.08554e-05
9 *1901:C *1903:A 8.52883e-05
10 *1903:B *1903:A 8.64488e-05
11 *2272:A *1903:A 4.63352e-05
12 *2272:A *580:21 0.000119351
13 *2273:A *2274:A 0
14 *546:79 *2274:A 0
*RES
1 *2037:Q *580:8 6.81 
2 *580:8 *1903:A 5.52 
3 *580:8 *580:21 2.91 
4 *580:21 *2171:A 4.05 
5 *580:21 *2274:A 6.63 
*END

*D_NET *581 0.000332909
*CONN
*I *2088:D I *D sky130_fd_sc_hd__dfrtp_2
*I *2183:X O *D sky130_fd_sc_hd__dlygate4sd3_1
*CAP
1 *2088:D 9.9377e-05
2 *2183:X 9.9377e-05
3 *2088:D *1950:A 1.56428e-05
4 *2088:D *681:8 0
5 *2088:D *728:27 0.000118513
*RES
1 *2183:X *2088:D 9.03 
*END

*D_NET *582 0.00131107
*CONN
*I *1607:A I *D sky130_fd_sc_hd__inv_2
*I *2184:X O *D sky130_fd_sc_hd__dlygate4sd3_1
*CAP
1 *1607:A 0.000531073
2 *2184:X 0.000531073
3 pcRegister[24] *1607:A 0
4 pcRegister[28] *1607:A 0.000159721
5 pcRegister[30] *1607:A 1.7635e-05
6 *1922:B *1607:A 7.15714e-05
7 *2043:D *1607:A 0
*RES
1 *2184:X *1607:A 17.19 
*END

*D_NET *583 0.000732343
*CONN
*I *1632:A1 I *D sky130_fd_sc_hd__a22o_2
*I *2185:X O *D sky130_fd_sc_hd__dlygate4sd3_1
*CAP
1 *1632:A1 0.000142654
2 *2185:X 0.000142654
3 *1632:A1 *1616:A 4.82919e-05
4 *1627:C *1632:A1 0.000198939
5 *1632:A2 *1632:A1 1.37395e-05
6 *2059:CLK *1632:A1 0.000186065
*RES
1 *2185:X *1632:A1 6.755 
*END

*D_NET *584 0.000909571
*CONN
*I *1669:B1 I *D sky130_fd_sc_hd__a21oi_2
*I *2186:X O *D sky130_fd_sc_hd__dlygate4sd3_1
*CAP
1 *1669:B1 0.000193812
2 *2186:X 0.000193812
3 *1669:B1 *1678:C 0
4 *1669:B1 *1678:D 8.53011e-05
5 *1669:B1 *759:21 0.00028606
6 *2187:A *1669:B1 0.000136766
7 *383:12 *1669:B1 1.38207e-05
*RES
1 *2186:X *1669:B1 11.865 
*END

*D_NET *585 0.000950132
*CONN
*I *1670:B I *D sky130_fd_sc_hd__nor2_2
*I *2187:X O *D sky130_fd_sc_hd__dlygate4sd3_1
*CAP
1 *1670:B 0.000251086
2 *2187:X 0.000251086
3 *1670:B *1678:C 6.55406e-05
4 *1670:B *2161:A 0
5 *1670:B *2165:A 2.75229e-05
6 *1670:B *759:10 0
7 *1670:B *760:27 7.58573e-05
8 *1668:B *1670:B 0
9 *2079:CLK *1670:B 9.24049e-05
10 *2079:RESET_B *1670:B 0.000127416
11 *541:12 *1670:B 5.92191e-05
*RES
1 *2187:X *1670:B 13.365 
*END

*D_NET *586 0.000392205
*CONN
*I *1826:B1 I *D sky130_fd_sc_hd__a21oi_2
*I *2188:X O *D sky130_fd_sc_hd__dlygate4sd3_1
*CAP
1 *1826:B1 0.000144258
2 *2188:X 0.000144258
3 *1826:B1 *684:10 0
4 *1826:B1 *684:40 0
5 *1826:B1 *688:27 8.65961e-05
6 *1631:C *1826:B1 1.70935e-05
*RES
1 *2188:X *1826:B1 9.375 
*END

*D_NET *587 0.00103472
*CONN
*I *1822:B1 I *D sky130_fd_sc_hd__a21oi_2
*I *2189:X O *D sky130_fd_sc_hd__dlygate4sd3_1
*CAP
1 *1822:B1 0.000240545
2 *2189:X 0.000240545
3 *1822:B1 *1654:B 6.20861e-05
4 *1822:B1 *1822:A1 8.65905e-05
5 *1822:B1 *2189:A 4.51928e-05
6 *1822:B1 *2211:A 0.000158965
7 *1822:B1 *696:38 4.08655e-05
8 *2115:D *1822:B1 2.49909e-05
9 *535:290 *1822:B1 0.000134938
*RES
1 *2189:X *1822:B1 12.24 
*END

*D_NET *588 0.00102101
*CONN
*I *1823:B I *D sky130_fd_sc_hd__nor2_2
*I *2190:X O *D sky130_fd_sc_hd__dlygate4sd3_1
*CAP
1 *1823:B 0.000170253
2 *2190:X 0.000170253
3 *1823:B *1821:A 0.000313954
4 *1823:B *1821:B 7.23602e-05
5 *1823:B *741:19 2.98587e-05
6 *1823:B *742:23 0.000196144
7 *2117:CLK *1823:B 6.81824e-05
8 *535:233 *1823:B 0
*RES
1 *2190:X *1823:B 12.27 
*END

*D_NET *589 0.000456648
*CONN
*I *1849:B1 I *D sky130_fd_sc_hd__a31oi_2
*I *2191:X O *D sky130_fd_sc_hd__dlygate4sd3_1
*CAP
1 *1849:B1 4.27248e-05
2 *2191:X 4.27248e-05
3 *1849:B1 *2191:A 0.000234763
4 *1848:A *1849:B1 0.000136435
*RES
1 *2191:X *1849:B1 5.375 
*END

*D_NET *590 0.000444922
*CONN
*I *1802:A I *D sky130_fd_sc_hd__xor2_2
*I *1618:A I *D sky130_fd_sc_hd__inv_2
*I *2192:X O *D sky130_fd_sc_hd__dlygate4sd3_1
*CAP
1 *1802:A 0.000188778
2 *1618:A 2.75923e-05
3 *2192:X 0.00021637
4 *1802:A *1915:A1 8.53113e-06
5 *2105:D *1618:A 3.64998e-06
6 *2220:A *1802:A 0
*RES
1 *2192:X *1618:A 3.65 
2 *2192:X *1802:A 9.72 
*END

*D_NET *591 0.00462175
*CONN
*I *2234:A I *D sky130_fd_sc_hd__dlygate4sd3_1
*I *1908:A1 I *D sky130_fd_sc_hd__a21oi_2
*I *2275:A I *D sky130_fd_sc_hd__clkdlybuf4s25_1
*I *1909:B I *D sky130_fd_sc_hd__and3_2
*I *1906:A1 I *D sky130_fd_sc_hd__a21oi_2
*I *1911:C I *D sky130_fd_sc_hd__and4_2
*I *2038:Q O *D sky130_fd_sc_hd__dfxtp_2
*CAP
1 *2234:A 2.20267e-05
2 *1908:A1 5.66906e-05
3 *2275:A 0.000282904
4 *1909:B 3.69588e-05
5 *1906:A1 0.000234425
6 *1911:C 2.35264e-05
7 *2038:Q 7.69426e-05
8 *591:53 0.000417985
9 *591:42 0.000150354
10 *591:25 0.000374515
11 *591:14 0.000328526
12 *591:10 0.000298884
13 *1906:A1 *1906:B1 2.49909e-05
14 *1906:A1 *602:25 0.0001947
15 *1908:A1 *670:14 5.6458e-05
16 *1911:C *683:57 5.16348e-05
17 *2275:A *670:14 0.000235339
18 *591:10 *1912:B 1.70935e-05
19 *591:14 *1912:A 0.00023468
20 *591:42 *2276:A 0
21 *591:53 *2276:A 0
22 *1906:A2 *1906:A1 1.19928e-05
23 *1908:A2 *1908:A1 4.31106e-05
24 *1910:C *1906:A1 6.71882e-05
25 *1910:C *1909:B 4.66108e-05
26 *1913:A2 *1906:A1 0.000123147
27 *1913:B1 *2234:A 2.16917e-05
28 *1913:B1 *591:14 5.83121e-06
29 *2038:D *591:10 7.55299e-05
30 *2040:CLK *591:25 7.13843e-05
31 *2040:D *591:42 1.06171e-05
32 *2147:A *1906:A1 0.000122331
33 *2154:A *2275:A 4.82863e-05
34 *516:18 *1911:C 9.50342e-06
35 *516:18 *591:10 0
36 *516:27 *1911:C 6.28498e-05
37 *516:27 *591:10 0
38 *516:27 *591:25 0.000298449
39 *516:36 *1908:A1 9.37731e-05
40 *516:36 *591:25 4.21314e-05
41 *516:36 *591:42 6.97124e-05
42 *516:36 *591:53 0.000160651
43 *546:79 *1911:C 1.18308e-05
44 *546:79 *591:25 0.000106496
*RES
1 *2038:Q *591:10 7.235 
2 *591:10 *591:14 5.555 
3 *591:14 *1911:C 4.47 
4 *591:14 *591:25 3.93 
5 *591:25 *1906:A1 9.36 
6 *591:25 *591:42 0.87 
7 *591:42 *1909:B 4.05 
8 *591:42 *591:53 1.89 
9 *591:53 *2275:A 8.55 
10 *591:53 *1908:A1 5.235 
11 *591:10 *2234:A 2.05 
*END

*D_NET *592 0.000626384
*CONN
*I *1889:A1 I *D sky130_fd_sc_hd__o21a_2
*I *2193:X O *D sky130_fd_sc_hd__dlygate4sd3_1
*CAP
1 *1889:A1 0.000205389
2 *2193:X 0.000205389
3 *1889:A1 *1877:A 3.26889e-05
4 *1889:A2 *1889:A1 2.75145e-05
5 *1889:B1 *1889:A1 0.000101999
6 *1891:C *1889:A1 2.67022e-05
7 *560:19 *1889:A1 2.67022e-05
*RES
1 *2193:X *1889:A1 10.515 
*END

*D_NET *593 9.19395e-05
*CONN
*I *1819:A1 I *D sky130_fd_sc_hd__o21a_2
*I *2194:X O *D sky130_fd_sc_hd__dlygate4sd3_1
*CAP
1 *1819:A1 1.80732e-05
2 *2194:X 1.80732e-05
3 *1817:B *1819:A1 4.99619e-05
4 *464:10 *1819:A1 5.83121e-06
*RES
1 *2194:X *1819:A1 3.65 
*END

*D_NET *594 0.000698286
*CONN
*I *1895:B1 I *D sky130_fd_sc_hd__a21oi_2
*I *2195:X O *D sky130_fd_sc_hd__dlygate4sd3_1
*CAP
1 *1895:B1 0.000252536
2 *2195:X 0.000252536
3 *1895:B1 *1906:B1 6.1197e-05
4 *1895:B1 *682:44 5.13924e-05
5 *1895:A1 *1895:B1 8.33066e-06
6 *1905:B1 *1895:B1 2.69443e-06
7 *535:337 *1895:B1 6.95998e-05
*RES
1 *2195:X *1895:B1 10.755 
*END

*D_NET *595 0.000879651
*CONN
*I *1718:A1 I *D sky130_fd_sc_hd__a21o_2
*I *2196:X O *D sky130_fd_sc_hd__dlygate4sd3_1
*CAP
1 *1718:A1 0.000173986
2 *2196:X 0.000173986
3 *1718:A1 *1717:B 6.19997e-05
4 *1718:A1 *2162:A 0
5 mem_addr[8] *1718:A1 4.82863e-05
6 *1718:A2 *1718:A1 0.000140912
7 *1793:A *1718:A1 8.65961e-05
8 *1794:B1 *1718:A1 0.000162325
9 *407:25 *1718:A1 8.53113e-06
10 *556:88 *1718:A1 2.30292e-05
*RES
1 *2196:X *1718:A1 11.61 
*END

*D_NET *596 0.000560884
*CONN
*I *1752:B1 I *D sky130_fd_sc_hd__o21a_2
*I *2197:X O *D sky130_fd_sc_hd__dlygate4sd3_1
*CAP
1 *1752:B1 0.000116484
2 *2197:X 0.000116484
3 *1752:B1 *701:24 0.000205098
4 *433:20 *1752:B1 0.000122817
*RES
1 *2197:X *1752:B1 6.41 
*END

*D_NET *597 0.00065108
*CONN
*I *1768:B1 I *D sky130_fd_sc_hd__o21a_2
*I *2198:X O *D sky130_fd_sc_hd__dlygate4sd3_1
*CAP
1 *1768:B1 8.09509e-05
2 *2198:X 8.09509e-05
3 *1723:A1 *1768:B1 0.000201503
4 *1768:A1 *1768:B1 0.000164874
5 *554:16 *1768:B1 0.000122801
*RES
1 *2198:X *1768:B1 6.065 
*END

*D_NET *598 0.000454346
*CONN
*I *1900:B1 I *D sky130_fd_sc_hd__a21oi_2
*I *2199:X O *D sky130_fd_sc_hd__dlygate4sd3_1
*CAP
1 *1900:B1 3.69852e-05
2 *2199:X 3.69852e-05
3 *1902:B *1900:B1 2.16833e-05
4 *2270:A *1900:B1 0.000198051
5 *512:14 *1900:B1 0.000160641
*RES
1 *2199:X *1900:B1 5.03 
*END

*D_NET *599 0.00026809
*CONN
*I *1876:B1 I *D sky130_fd_sc_hd__a21oi_2
*I *2200:X O *D sky130_fd_sc_hd__dlygate4sd3_1
*CAP
1 *1876:B1 2.86501e-05
2 *2200:X 2.86501e-05
3 *1876:B1 *1888:A 0.000124989
4 *2025:D *1876:B1 8.58007e-05
*RES
1 *2200:X *1876:B1 4.34 
*END

*D_NET *600 0.000232567
*CONN
*I *1672:A I *D sky130_fd_sc_hd__xor2_2
*I *2201:X O *D sky130_fd_sc_hd__dlygate4sd3_1
*CAP
1 *1672:A 5.61903e-05
2 *2201:X 5.61903e-05
3 *1672:B *1672:A 0.000120186
*RES
1 *2201:X *1672:A 8.58 
*END

*D_NET *601 0.000149499
*CONN
*I *1829:A I *D sky130_fd_sc_hd__xor2_2
*I *2202:X O *D sky130_fd_sc_hd__dlygate4sd3_1
*CAP
1 *1829:A 3.15285e-05
2 *2202:X 3.15285e-05
3 *1829:B *1829:A 8.64421e-05
*RES
1 *2202:X *1829:A 3.995 
*END

*D_NET *602 0.00434699
*CONN
*I *2206:A I *D sky130_fd_sc_hd__dlygate4sd3_1
*I *1909:A I *D sky130_fd_sc_hd__and3_2
*I *2276:A I *D sky130_fd_sc_hd__clkdlybuf4s25_1
*I *1911:B I *D sky130_fd_sc_hd__and4_2
*I *2039:Q O *D sky130_fd_sc_hd__dfxtp_2
*CAP
1 *2206:A 0.000196498
2 *1909:A 0
3 *2276:A 0.000619976
4 *1911:B 0.000250547
5 *2039:Q 0
6 *602:25 0.000743742
7 *602:21 0.000358742
8 *602:6 0.000289026
9 *1911:B *1910:A 1.43774e-05
10 *1911:B *1912:A 0.000222123
11 *1911:B *1912:B 0.000105086
12 *2206:A *1912:B 7.39409e-05
13 *2276:A *2278:A 0.000358243
14 *2276:A *614:25 0.00026916
15 *2276:A *647:12 0
16 *2276:A *670:14 0
17 *602:21 *1912:B 3.68682e-05
18 *1906:A1 *602:25 0.0001947
19 *1910:C *2276:A 6.11722e-05
20 *1910:C *602:25 1.47256e-05
21 *1924:A1 *2276:A 0.000196045
22 *2040:CLK *2276:A 0
23 *2040:D *2276:A 7.82872e-05
24 *2042:D *2206:A 7.00889e-06
25 *516:27 *1911:B 0
26 *521:8 *1911:B 0.000107716
27 *521:8 *2206:A 0.000102445
28 *521:8 *602:21 4.65643e-05
29 *591:42 *2276:A 0
30 *591:53 *2276:A 0
*RES
1 *2039:Q *602:6 3.6 
2 *602:6 *1911:B 9.3 
3 *602:6 *602:21 1.125 
4 *602:21 *602:25 4.175 
5 *602:25 *2276:A 18.47 
6 *602:25 *1909:A 1.6 
7 *602:21 *2206:A 7.485 
*END

*D_NET *603 0.000782963
*CONN
*I *1875:A1 I *D sky130_fd_sc_hd__o211a_2
*I *2203:X O *D sky130_fd_sc_hd__dlygate4sd3_1
*CAP
1 *1875:A1 0.000289867
2 *2203:X 0.000289867
3 *1875:A1 *2180:A 3.64998e-06
4 *1875:A1 *2298:A 7.25921e-06
5 *1875:A1 *686:27 6.24581e-05
6 *1875:A2 *1875:A1 5.18317e-06
7 *2027:D *1875:A1 7.61013e-05
8 *543:37 *1875:A1 0
9 *577:10 *1875:A1 4.85763e-05
*RES
1 *2203:X *1875:A1 11.3138 
*END

*D_NET *604 0.000170947
*CONN
*I *1805:A I *D sky130_fd_sc_hd__xor2_2
*I *2204:X O *D sky130_fd_sc_hd__dlygate4sd3_1
*CAP
1 *1805:A 1.78838e-05
2 *2204:X 1.78838e-05
3 *1805:A *2204:A 4.98818e-05
4 *1805:B *1805:A 8.52977e-05
*RES
1 *2204:X *1805:A 3.995 
*END

*D_NET *605 0.000208468
*CONN
*I *1693:A I *D sky130_fd_sc_hd__xnor2_2
*I *2205:X O *D sky130_fd_sc_hd__dlygate4sd3_1
*CAP
1 *1693:A 7.31866e-05
2 *2205:X 7.31866e-05
3 *1693:B *1693:A 0
4 *542:10 *1693:A 1.70935e-05
5 *542:43 *1693:A 4.50017e-05
*RES
1 *2205:X *1693:A 8.58 
*END

*D_NET *606 0.000343631
*CONN
*I *1908:B1 I *D sky130_fd_sc_hd__a21oi_2
*I *2206:X O *D sky130_fd_sc_hd__dlygate4sd3_1
*CAP
1 *1908:B1 0.000112002
2 *2206:X 0.000112002
3 *1908:B1 *1912:B 0
4 *2154:A *1908:B1 5.83121e-06
5 *521:31 *1908:B1 0.000113797
*RES
1 *2206:X *1908:B1 9.03 
*END

*D_NET *607 0.000153635
*CONN
*I *1692:A I *D sky130_fd_sc_hd__xor2_2
*I *2207:X O *D sky130_fd_sc_hd__dlygate4sd3_1
*CAP
1 *1692:A 7.68175e-05
2 *2207:X 7.68175e-05
*RES
1 *2207:X *1692:A 4.34 
*END

*D_NET *608 0.000262867
*CONN
*I *1883:A1 I *D sky130_fd_sc_hd__o211a_2
*I *2208:X O *D sky130_fd_sc_hd__dlygate4sd3_1
*CAP
1 *1883:A1 3.68173e-05
2 *2208:X 3.68173e-05
3 *1883:B1 *1883:A1 8.42302e-05
4 *2029:D *1883:A1 4.82863e-05
5 *492:79 *1883:A1 5.67157e-05
*RES
1 *2208:X *1883:A1 4.5575 
*END

*D_NET *609 0.00164568
*CONN
*I *1916:B1 I *D sky130_fd_sc_hd__a21oi_2
*I *2209:X O *D sky130_fd_sc_hd__dlygate4sd3_1
*CAP
1 *1916:B1 0.000348511
2 *2209:X 0.000348511
3 *1916:B1 *1907:A1 0.000108833
4 *1916:B1 *1916:A1 0
5 *1916:B1 *1919:A1 0.00019335
6 *1916:B1 *625:16 4.92062e-05
7 *1929:D *1916:B1 0.000314672
8 *528:20 *1916:B1 0.000282593
*RES
1 *2209:X *1916:B1 15.495 
*END

*D_NET *610 0.000726825
*CONN
*I *1870:B1 I *D sky130_fd_sc_hd__a21oi_2
*I *2210:X O *D sky130_fd_sc_hd__dlygate4sd3_1
*CAP
1 *1870:B1 0.000127886
2 *2210:X 0.000127886
3 *1870:B1 *1873:A 9.54411e-05
4 *1869:A1 *1870:B1 0.000197243
5 *1869:A2 *1870:B1 4.77807e-05
6 *1872:B *1870:B1 0.000130589
*RES
1 *2210:X *1870:B1 6.785 
*END

*D_NET *611 0.000346531
*CONN
*I *1820:A I *D sky130_fd_sc_hd__xor2_2
*I *2211:X O *D sky130_fd_sc_hd__dlygate4sd3_1
*CAP
1 *1820:A 0.000110839
2 *2211:X 0.000110839
3 *1820:A *1822:A1 4.82919e-05
4 *1820:A *741:19 7.65612e-05
5 *2142:A *1820:A 0
*RES
1 *2211:X *1820:A 9.285 
*END

*D_NET *612 0.000113292
*CONN
*I *1671:A I *D sky130_fd_sc_hd__xor2_2
*I *2212:X O *D sky130_fd_sc_hd__dlygate4sd3_1
*CAP
1 *1671:A 5.66458e-05
2 *2212:X 5.66458e-05
*RES
1 *2212:X *1671:A 3.995 
*END

*D_NET *613 0.00208694
*CONN
*I *2277:A I *D sky130_fd_sc_hd__clkdlybuf4s25_1
*I *2121:Q O *D sky130_fd_sc_hd__dfstp_2
*CAP
1 *2277:A 0.000775055
2 *2121:Q 0.000775055
3 *2277:A *1916:A1 0.000109275
4 *2277:A *1916:A2 0
5 *2277:A *1919:A1 9.68476e-05
6 *2277:A *1919:B1 0
7 *2277:A *1930:B1 0.000196084
8 *2277:A *658:36 2.01612e-05
9 *2045:D *2277:A 1.7635e-05
10 *169:79 *2277:A 9.68247e-05
*RES
1 *2121:Q *2277:A 17.49 
*END

*D_NET *614 0.00366875
*CONN
*I *2278:A I *D sky130_fd_sc_hd__clkdlybuf4s25_1
*I *2173:A I *D sky130_fd_sc_hd__dlygate4sd3_1
*I *1911:A I *D sky130_fd_sc_hd__and4_2
*I *2040:Q O *D sky130_fd_sc_hd__dfxtp_2
*CAP
1 *2278:A 0.000327945
2 *2173:A 0
3 *1911:A 0.00032921
4 *2040:Q 0.000222511
5 *614:25 0.000564856
6 *614:8 0.000788631
7 *1911:A *1910:A 4.90962e-05
8 *2278:A *2284:A 8.33066e-06
9 *2278:A *647:12 0
10 pcRegister[27] *2278:A 0.000292582
11 pcRegister[27] *614:25 6.10259e-05
12 pcRegister[28] *2278:A 9.28507e-05
13 *1910:B *1911:A 0
14 *1910:B *614:25 0
15 *1910:C *614:8 3.07457e-05
16 *2039:D *1911:A 0.00020271
17 *2043:D *2278:A 0
18 *2273:A *1911:A 0
19 *2274:A *1911:A 7.08554e-05
20 *2276:A *2278:A 0.000358243
21 *2276:A *614:25 0.00026916
*RES
1 *2040:Q *614:8 6.12 
2 *614:8 *1911:A 9.285 
3 *614:8 *614:25 5.25 
4 *614:25 *2173:A 3.6 
5 *614:25 *2278:A 11.565 
*END

*D_NET *615 0.000968072
*CONN
*I *1795:A1 I *D sky130_fd_sc_hd__a21bo_2
*I *2213:X O *D sky130_fd_sc_hd__dlygate4sd3_1
*CAP
1 *1795:A1 0.000248456
2 *2213:X 0.000248456
3 *1795:A1 *1715:B 2.69217e-05
4 *1795:A1 *1715:C 6.74615e-05
5 *1795:A1 *2162:A 9.83473e-05
6 *1795:A1 *2213:A 0.000158556
7 *1795:A1 *717:21 0.000119873
*RES
1 *2213:X *1795:A1 8.48 
*END

*D_NET *616 0.00108056
*CONN
*I *1791:B1 I *D sky130_fd_sc_hd__a21o_2
*I *2214:X O *D sky130_fd_sc_hd__dlygate4sd3_1
*CAP
1 *1791:B1 0.000201172
2 *2214:X 0.000201172
3 *1791:B1 *692:59 0
4 *1791:B1 *721:14 0
5 *1743:A3 *1791:B1 7.23533e-05
6 *1793:B *1791:B1 4.85795e-05
7 *2093:RESET_B *1791:B1 0.000136877
8 *2094:CLK *1791:B1 4.66108e-05
9 *2215:A *1791:B1 8.8266e-05
10 *552:62 *1791:B1 0.000237242
11 *553:34 *1791:B1 4.82863e-05
*RES
1 *2214:X *1791:B1 12.555 
*END

*D_NET *617 0.000464024
*CONN
*I *2093:D I *D sky130_fd_sc_hd__dfrtp_2
*I *2215:X O *D sky130_fd_sc_hd__dlygate4sd3_1
*CAP
1 *2093:D 0.000186134
2 *2215:X 0.000186134
3 *1793:A *2093:D 4.9253e-06
4 *1793:B *2093:D 4.99619e-05
5 *537:14 *2093:D 3.68682e-05
*RES
1 *2215:X *2093:D 9.81 
*END

*D_NET *618 0.000344631
*CONN
*I *1740:A1 I *D sky130_fd_sc_hd__o22a_2
*I *2216:X O *D sky130_fd_sc_hd__dlygate4sd3_1
*CAP
1 *1740:A1 4.02202e-05
2 *2216:X 4.02202e-05
3 *1740:A1 *692:14 0.000121043
4 *1740:A2 *1740:A1 2.21074e-05
5 *2054:RESET_B *1740:A1 0.000121039
*RES
1 *2216:X *1740:A1 4.685 
*END

*D_NET *619 0.000789031
*CONN
*I *1858:B1 I *D sky130_fd_sc_hd__a21oi_2
*I *2217:X O *D sky130_fd_sc_hd__dlygate4sd3_1
*CAP
1 *1858:B1 8.83047e-05
2 *2217:X 8.83047e-05
3 *1711:A2 *1858:B1 4.82919e-05
4 *1711:B1_N *1858:B1 0.000126584
5 *1860:B *1858:B1 0.000387003
6 *483:39 *1858:B1 5.05437e-05
*RES
1 *2217:X *1858:B1 6.755 
*END

*D_NET *620 0.000415154
*CONN
*I *1824:A I *D sky130_fd_sc_hd__xor2_2
*I *2218:X O *D sky130_fd_sc_hd__dlygate4sd3_1
*CAP
1 *1824:A 6.87238e-05
2 *2218:X 6.87238e-05
3 *1824:A *685:26 0.000115482
4 *2114:CLK *1824:A 4.66108e-05
5 *468:14 *1824:A 0.000115614
*RES
1 *2218:X *1824:A 9.03 
*END

*D_NET *621 0.00154721
*CONN
*I *1803:B1 I *D sky130_fd_sc_hd__a21oi_2
*I *2219:X O *D sky130_fd_sc_hd__dlygate4sd3_1
*CAP
1 *1803:B1 0.000542269
2 *2219:X 0.000542269
3 *1803:B1 *1803:A1 8.02311e-05
4 *1803:B1 *687:36 0.000135667
5 *1830:A *1803:B1 0.000161467
6 *1830:B *1803:B1 8.53011e-05
*RES
1 *2219:X *1803:B1 16.35 
*END

*D_NET *622 0.000989579
*CONN
*I *1804:B I *D sky130_fd_sc_hd__nor2_2
*I *2220:X O *D sky130_fd_sc_hd__dlygate4sd3_1
*CAP
1 *1804:B 0.000122598
2 *2220:X 0.000122598
3 *1804:B *1649:A 4.80285e-05
4 *1804:B *1651:C 8.60799e-05
5 *1804:B *1651:D 5.58286e-05
6 *1804:B *685:51 0.000465127
7 *1804:B *740:44 2.49909e-05
8 *2107:D *1804:B 6.43286e-05
*RES
1 *2220:X *1804:B 7.805 
*END

*D_NET *623 0.00114457
*CONN
*I *1802:B I *D sky130_fd_sc_hd__xor2_2
*I *2221:X O *D sky130_fd_sc_hd__dlygate4sd3_1
*CAP
1 *1802:B 0.000409257
2 *2221:X 0.000409257
3 *1802:B *1915:A1 0
4 *1802:B *1917:A2 2.75229e-05
5 *1802:B *636:12 0
6 *1913:B1 *1802:B 0.000167843
7 *2106:CLK *1802:B 2.95721e-05
8 *2220:A *1802:B 0.000101118
*RES
1 *2221:X *1802:B 12.7925 
*END

*D_NET *624 0.000361047
*CONN
*I *1721:B1 I *D sky130_fd_sc_hd__o31a_2
*I *2222:X O *D sky130_fd_sc_hd__dlygate4sd3_1
*CAP
1 *1721:B1 7.81072e-05
2 *2222:X 7.81072e-05
3 *1783:B1 *1721:B1 0.000116165
4 *1784:A *1721:B1 6.47594e-05
5 *1784:B *1721:B1 1.83756e-05
6 *331:10 *1721:B1 5.53249e-06
*RES
1 *2222:X *1721:B1 9.03 
*END

*D_NET *625 0.00749303
*CONN
*I *1917:A2 I *D sky130_fd_sc_hd__a31o_2
*I *2243:A I *D sky130_fd_sc_hd__dlygate4sd3_1
*I *2252:A I *D sky130_fd_sc_hd__dlygate4sd3_1
*I *1914:A1 I *D sky130_fd_sc_hd__a21oi_2
*I *1919:A2 I *D sky130_fd_sc_hd__a31o_2
*I *1920:C I *D sky130_fd_sc_hd__and3_2
*I *2279:A I *D sky130_fd_sc_hd__clkdlybuf4s25_1
*I *2041:Q O *D sky130_fd_sc_hd__dfxtp_2
*CAP
1 *1917:A2 0.000214241
2 *2243:A 0
3 *2252:A 0
4 *1914:A1 0
5 *1919:A2 0.000694708
6 *1920:C 0
7 *2279:A 0.000496399
8 *2041:Q 0
9 *625:77 0.000301774
10 *625:39 0.000847929
11 *625:24 0.000661533
12 *625:20 0.000193568
13 *625:16 0.000390259
14 *625:4 0.000296136
15 *1917:A2 *670:70 2.2684e-05
16 *1917:A2 *685:51 0
17 *1917:A2 *688:68 1.95323e-05
18 *1919:A2 *1916:A2 1.88656e-05
19 *1919:A2 *1919:A1 1.88656e-05
20 *1919:A2 *1919:B1 0.000387237
21 *1919:A2 *2011:A 1.36009e-05
22 *2279:A *1912:B 3.62098e-05
23 *625:16 *1907:A1 0
24 *625:16 *636:20 0
25 *625:16 *636:34 5.83121e-06
26 *625:20 *1914:A2 5.4155e-06
27 *625:20 *1916:A1 1.77665e-05
28 *625:20 *670:23 2.75145e-05
29 *625:20 *670:36 3.83194e-05
30 *625:24 *670:23 1.34594e-05
31 *625:39 *2282:A 0
32 red[0] *2279:A 1.88602e-05
33 *1802:B *1917:A2 2.75229e-05
34 *1908:A2 *2279:A 0.000123225
35 *1910:B *2279:A 8.11509e-05
36 *1913:A1 *1917:A2 2.23589e-05
37 *1913:A1 *2279:A 8.52052e-05
38 *1913:A1 *625:16 8.30552e-05
39 *1913:A1 *625:77 0.000210411
40 *1913:A2 *1917:A2 5.13692e-05
41 *1913:A2 *625:16 0.000158072
42 *1913:A2 *625:77 0.000203402
43 *1915:B1 *625:16 0.000128144
44 *1915:B1 *625:20 0.000305371
45 *1916:B1 *625:16 4.92062e-05
46 *1918:A *1919:A2 8.34144e-06
47 *1918:A *625:39 8.80871e-05
48 *1918:B *625:39 7.7286e-05
49 *1922:C *1919:A2 7.34572e-05
50 *2042:D *2279:A 2.75538e-05
51 *2042:D *625:39 3.60648e-06
52 *2043:CLK *625:20 6.26945e-05
53 *2043:CLK *625:24 4.82919e-05
54 *2044:D *1919:A2 0.000151741
55 *2045:D *1919:A2 0.000110759
56 *2122:SET_B *1919:A2 8.26035e-05
57 *521:31 *2279:A 8.91099e-05
58 *521:31 *625:39 0.000301599
59 *528:20 *625:16 9.87009e-05
*RES
1 *2041:Q *625:4 1.6 
2 *625:4 *625:16 8.875 
3 *625:16 *625:20 4.26 
4 *625:20 *625:24 2.45 
5 *625:24 *2279:A 12.075 
6 *625:24 *625:39 4.44 
7 *625:39 *1920:C 3.6 
8 *625:39 *1919:A2 10.5889 
9 *625:20 *1914:A1 1.6 
10 *625:16 *2252:A 1.6 
11 *625:4 *625:77 3.57 
12 *625:77 *2243:A 1.6 
13 *625:77 *1917:A2 9.395 
*END

*D_NET *626 0.000535257
*CONN
*I *1722:B1 I *D sky130_fd_sc_hd__o31a_2
*I *2223:X O *D sky130_fd_sc_hd__dlygate4sd3_1
*CAP
1 *1722:B1 6.74671e-05
2 *2223:X 6.74671e-05
3 *1722:B1 *1621:A2 0.0001334
4 *1722:B1 *708:16 4.99619e-05
5 *1722:A2 *1722:B1 4.37684e-05
6 *1841:B *1722:B1 4.82919e-05
7 *330:6 *1722:B1 0.0001249
*RES
1 *2223:X *1722:B1 5.84 
*END

*D_NET *627 0.00355821
*CONN
*I *1846:B1 I *D sky130_fd_sc_hd__a21oi_2
*I *2224:X O *D sky130_fd_sc_hd__dlygate4sd3_1
*CAP
1 *1846:B1 0.000441975
2 *2224:X 0.000441975
3 *1846:B1 *1846:A1 0.00014984
4 *1846:B1 *1847:B1 0.00100395
5 *1846:B1 *659:36 4.82863e-05
6 *1846:B1 *659:38 0.000108761
7 *1846:B1 *659:44 0.000177754
8 *1846:B1 *659:82 0.000703065
9 *1732:A2 *1846:B1 4.99619e-05
10 *1733:B *1846:B1 8.12469e-05
11 *1845:A2 *1846:B1 4.99619e-05
12 *1848:A *1846:B1 4.82863e-05
13 *2017:D *1846:B1 4.99619e-05
14 *481:14 *1846:B1 0.000203178
*RES
1 *2224:X *1846:B1 19.985 
*END

*D_NET *628 9.40065e-05
*CONN
*I *1894:A1 I *D sky130_fd_sc_hd__o21ba_2
*I *2225:X O *D sky130_fd_sc_hd__dlygate4sd3_1
*CAP
1 *1894:A1 7.00326e-06
2 *2225:X 7.00326e-06
3 *1893:A1 *1894:A1 4.99619e-05
4 *2271:A *1894:A1 3.00381e-05
*RES
1 *2225:X *1894:A1 3.65 
*END

*D_NET *629 0.000605491
*CONN
*I *1792:A I *D sky130_fd_sc_hd__and2_2
*I *2226:X O *D sky130_fd_sc_hd__dlygate4sd3_1
*CAP
1 *1792:A 0.000143314
2 *2226:X 0.000143314
3 *1792:A *1636:C 0
4 *1792:A *694:8 8.35106e-05
5 *1792:A *701:57 4.04613e-05
6 mem_addr[10] *1792:A 0.000194891
*RES
1 *2226:X *1792:A 10.41 
*END

*D_NET *630 0.000390023
*CONN
*I *1695:A I *D sky130_fd_sc_hd__nor2_2
*I *2227:X O *D sky130_fd_sc_hd__dlygate4sd3_1
*CAP
1 *1695:A 0.00019211
2 *2227:X 0.00019211
3 *1695:A *1959:A 5.80232e-06
*RES
1 *2227:X *1695:A 6.08 
*END

*D_NET *631 0.000505551
*CONN
*I *1781:B I *D sky130_fd_sc_hd__and2b_2
*I *2228:X O *D sky130_fd_sc_hd__dlygate4sd3_1
*CAP
1 *1781:B 7.51442e-05
2 *2228:X 7.51442e-05
3 *1788:A2 *1781:B 0.000121659
4 *445:18 *1781:B 0.000233604
*RES
1 *2228:X *1781:B 5.375 
*END

*D_NET *632 0.00118629
*CONN
*I *1813:A I *D sky130_fd_sc_hd__xnor2_2
*I *2229:X O *D sky130_fd_sc_hd__dlygate4sd3_1
*CAP
1 *1813:A 0.00029095
2 *2229:X 0.00029095
3 *1813:A *1810:A 0.000121659
4 *1813:A *752:12 3.78419e-05
5 *1813:A *752:16 9.23804e-06
6 *1813:B *1813:A 7.58309e-05
7 *2111:D *1813:A 8.53011e-05
8 *459:43 *1813:A 2.30292e-05
9 *459:58 *1813:A 0.000251485
*RES
1 *2229:X *1813:A 13.53 
*END

*D_NET *633 0.000188824
*CONN
*I *1780:A I *D sky130_fd_sc_hd__or2_2
*I *2230:X O *D sky130_fd_sc_hd__dlygate4sd3_1
*CAP
1 *1780:A 6.44716e-05
2 *2230:X 6.44716e-05
3 *1780:B *1780:A 2.75145e-05
4 *2086:D *1780:A 3.23663e-05
*RES
1 *2230:X *1780:A 4.34 
*END

*D_NET *634 0.000600717
*CONN
*I *1724:B1 I *D sky130_fd_sc_hd__a21oi_2
*I *2231:X O *D sky130_fd_sc_hd__dlygate4sd3_1
*CAP
1 *1724:B1 0.000121736
2 *2231:X 0.000121736
3 *1724:B1 *1723:B1 0.000283211
4 *1724:A1 *1724:B1 7.40338e-05
*RES
1 *2231:X *1724:B1 10.62 
*END

*D_NET *635 0.00113851
*CONN
*I *1682:B1 I *D sky130_fd_sc_hd__a21oi_2
*I *2232:X O *D sky130_fd_sc_hd__dlygate4sd3_1
*CAP
1 *1682:B1 0.000174628
2 *2232:X 0.000174628
3 *1682:B1 *1657:B 0.000233925
4 *1682:B1 *674:36 0.000122797
5 *1682:B1 *770:19 6.45236e-05
6 *1682:A1 *1682:B1 2.10214e-05
7 *359:12 *1682:B1 4.85381e-05
8 *372:14 *1682:B1 0.000298449
*RES
1 *2232:X *1682:B1 12.795 
*END

*D_NET *636 0.00538281
*CONN
*I *2209:A I *D sky130_fd_sc_hd__dlygate4sd3_1
*I *1917:A1 I *D sky130_fd_sc_hd__a31o_2
*I *1919:A1 I *D sky130_fd_sc_hd__a31o_2
*I *1920:B I *D sky130_fd_sc_hd__and3_2
*I *2280:A I *D sky130_fd_sc_hd__clkdlybuf4s25_1
*I *2042:Q O *D sky130_fd_sc_hd__dfxtp_2
*CAP
1 *2209:A 0
2 *1917:A1 0.000368597
3 *1919:A1 0.000302152
4 *1920:B 0
5 *2280:A 0.000147284
6 *2042:Q 0.000214633
7 *636:36 0.000408458
8 *636:34 0.000919368
9 *636:20 0.000786247
10 *636:12 0.000276241
11 *1917:A1 *1917:A3 4.77757e-05
12 *1917:A1 *1997:A 0
13 *1917:A1 *670:51 8.58339e-06
14 *1917:A1 *670:62 0.000107942
15 *1919:A1 *1916:A1 8.39446e-05
16 *1919:A1 *1916:A2 3.55585e-05
17 *2280:A *1919:B1 2.59934e-06
18 *2280:A *2282:A 5.72091e-05
19 *2280:A *647:12 3.64998e-06
20 *2280:A *647:21 1.06688e-05
21 *636:12 *1915:A1 7.23602e-05
22 *636:12 *1915:A2 0.000132875
23 *636:20 *1921:A 0
24 *1802:B *636:12 0
25 *1916:B1 *1919:A1 0.00019335
26 *1919:A2 *1919:A1 1.88656e-05
27 *1924:A1 *636:34 4.36573e-06
28 *1929:D *1919:A1 9.30637e-06
29 *2277:A *1919:A1 9.68476e-05
30 *169:18 *636:34 0.000150397
31 *521:31 *2280:A 0.000125572
32 *521:31 *636:36 0.00023468
33 *527:8 *636:34 5.83121e-06
34 *527:8 *636:36 8.57321e-05
35 *527:17 *636:34 8.05167e-05
36 *528:20 *1917:A1 2.50702e-05
37 *528:20 *636:20 8.86295e-05
38 *528:20 *636:34 0.00027167
39 *625:16 *636:20 0
40 *625:16 *636:34 5.83121e-06
*RES
1 *2042:Q *636:12 9.47 
2 *636:12 *636:20 1.875 
3 *636:20 *636:34 10.09 
4 *636:34 *636:36 3.555 
5 *636:36 *2280:A 8.375 
6 *636:36 *1920:B 1.6 
7 *636:34 *1919:A1 11.825 
8 *636:20 *1917:A1 7.36 
9 *636:12 *2209:A 1.6 
*END

*D_NET *637 0.000531589
*CONN
*I *1899:A1 I *D sky130_fd_sc_hd__o21a_2
*I *2233:X O *D sky130_fd_sc_hd__dlygate4sd3_1
*CAP
1 *1899:A1 0.000196206
2 *2233:X 0.000196206
3 *1899:A1 *1888:A 0
4 *1876:A2 *1899:A1 5.53249e-06
5 *1898:A1 *1899:A1 6.69341e-05
6 *1899:A2 *1899:A1 5.21046e-05
7 *1899:B1 *1899:A1 1.01661e-05
8 *492:87 *1899:A1 4.43871e-06
*RES
1 *2233:X *1899:A1 10.32 
*END

*D_NET *638 0.00205788
*CONN
*I *1907:A1 I *D sky130_fd_sc_hd__o21a_2
*I *2234:X O *D sky130_fd_sc_hd__dlygate4sd3_1
*CAP
1 *1907:A1 0.000509797
2 *2234:X 0.000509797
3 *1907:A1 *1906:B1 0
4 *1907:A1 *1915:A1 0
5 *1906:A2 *1907:A1 0.000272728
6 *1907:A2 *1907:A1 0.000383935
7 *1907:B1 *1907:A1 3.1117e-05
8 *1913:B1 *1907:A1 1.7386e-05
9 *1915:B1 *1907:A1 0
10 *1916:B1 *1907:A1 0.000108833
11 *2041:D *1907:A1 0.000112299
12 *528:20 *1907:A1 3.30152e-05
13 *535:351 *1907:A1 7.89689e-05
14 *625:16 *1907:A1 0
*RES
1 *2234:X *1907:A1 19.23 
*END

*D_NET *639 0.000479343
*CONN
*I *1767:B1 I *D sky130_fd_sc_hd__o21a_2
*I *2235:X O *D sky130_fd_sc_hd__dlygate4sd3_1
*CAP
1 *1767:B1 8.14231e-05
2 *2235:X 8.14231e-05
3 *1767:B1 *701:24 0.0002312
4 *1767:A2 *1767:B1 8.52972e-05
*RES
1 *2235:X *1767:B1 5.375 
*END

*D_NET *640 0.000915351
*CONN
*I *1864:A I *D sky130_fd_sc_hd__nor2_2
*I *2236:X O *D sky130_fd_sc_hd__dlygate4sd3_1
*CAP
1 *1864:A 0.000351869
2 *2236:X 0.000351869
3 *1864:A *2293:A 1.83847e-05
4 pcRegister[9] *1864:A 4.99619e-05
5 *1864:B *1864:A 0.000143266
6 *2024:D *1864:A 0
*RES
1 *2236:X *1864:A 12.045 
*END

*D_NET *641 0.00158751
*CONN
*I *1723:B1 I *D sky130_fd_sc_hd__a21oi_2
*I *2237:X O *D sky130_fd_sc_hd__dlygate4sd3_1
*CAP
1 *1723:B1 0.000376886
2 *2237:X 0.000376886
3 *1723:B1 *1751:A_N 0.000372822
4 *1723:B1 *1751:B 8.65308e-05
5 *1723:B1 *2237:A 1.79098e-05
6 *1723:B1 *731:72 0
7 *1723:B1 *731:124 7.32671e-05
8 *1724:B1 *1723:B1 0.000283211
*RES
1 *2237:X *1723:B1 16.05 
*END

*D_NET *642 0.000612164
*CONN
*I *1694:A I *D sky130_fd_sc_hd__xor2_2
*I *2238:X O *D sky130_fd_sc_hd__dlygate4sd3_1
*CAP
1 *1694:A 0.000239608
2 *2238:X 0.000239608
3 *1694:A *700:59 0
4 *2071:D *1694:A 5.39718e-05
5 *542:43 *1694:A 7.89767e-05
*RES
1 *2238:X *1694:A 11.355 
*END

*D_NET *643 0.000141184
*CONN
*I *1713:A1 I *D sky130_fd_sc_hd__o31ai_2
*I *2239:X O *D sky130_fd_sc_hd__dlygate4sd3_1
*CAP
1 *1713:A1 2.00398e-05
2 *2239:X 2.00398e-05
3 *1713:B1 *1713:A1 5.05521e-05
4 *404:16 *1713:A1 5.05521e-05
*RES
1 *2239:X *1713:A1 3.995 
*END

*D_NET *644 0.000391527
*CONN
*I *1857:A1 I *D sky130_fd_sc_hd__o21a_2
*I *2240:X O *D sky130_fd_sc_hd__dlygate4sd3_1
*CAP
1 *1857:A1 5.55979e-05
2 *2240:X 5.55979e-05
3 *1857:A1 *1978:A 4.66108e-05
4 *1857:A2 *1857:A1 7.47608e-05
5 *1886:B *1857:A1 0.00015896
*RES
1 *2240:X *1857:A1 5.045 
*END

*D_NET *645 0.00112701
*CONN
*I *1702:B1 I *D sky130_fd_sc_hd__a21oi_2
*I *2241:X O *D sky130_fd_sc_hd__dlygate4sd3_1
*CAP
1 *1702:B1 0.000266867
2 *2241:X 0.000266867
3 *1702:B1 *1702:A1 0.00016031
4 *1702:B1 *696:80 0
5 *1703:A *1702:B1 0.000340846
6 *1705:A *1702:B1 9.21153e-05
*RES
1 *2241:X *1702:B1 13.365 
*END

*D_NET *646 0.00128486
*CONN
*I *1788:B2 I *D sky130_fd_sc_hd__a221o_2
*I *2242:X O *D sky130_fd_sc_hd__dlygate4sd3_1
*CAP
1 *1788:B2 0.000380265
2 *2242:X 0.000380265
3 *1788:B2 *1788:A1 2.48591e-05
4 *1773:A *1788:B2 0
5 *1788:A2 *1788:B2 0.000133217
6 *445:18 *1788:B2 0.000346099
7 *545:8 *1788:B2 2.01565e-05
*RES
1 *2242:X *1788:B2 12.63 
*END

*D_NET *647 0.0026845
*CONN
*I *1919:B1 I *D sky130_fd_sc_hd__a31o_2
*I *1920:A I *D sky130_fd_sc_hd__and3_2
*I *2281:A I *D sky130_fd_sc_hd__clkdlybuf4s25_1
*I *2043:Q O *D sky130_fd_sc_hd__dfxtp_2
*CAP
1 *1919:B1 0.000393627
2 *1920:A 0
3 *2281:A 0
4 *2043:Q 0.000292782
5 *647:21 0.000433499
6 *647:12 0.000332655
7 *1919:B1 *1926:A 4.77807e-05
8 *1919:B1 *2288:A 0.000129497
9 *647:12 *2282:A 0.000208835
10 red[2] *647:12 0
11 *1918:A *1919:B1 0.000117407
12 *1919:A2 *1919:B1 0.000387237
13 *1922:B *1919:B1 0.000271111
14 *1931:C *1919:B1 2.02052e-05
15 *2122:SET_B *1919:B1 9.81542e-06
16 *2276:A *647:12 0
17 *2277:A *1919:B1 0
18 *2278:A *647:12 0
19 *2280:A *1919:B1 2.59934e-06
20 *2280:A *647:12 3.64998e-06
21 *2280:A *647:21 1.06688e-05
22 *521:31 *1919:B1 2.31329e-05
23 *521:31 *647:12 0
*RES
1 *2043:Q *647:12 10.76 
2 *647:12 *2281:A 1.6 
3 *647:12 *647:21 0.81 
4 *647:21 *1920:A 1.6 
5 *647:21 *1919:B1 14.825 
*END

*D_NET *648 0.000627771
*CONN
*I *1915:A1 I *D sky130_fd_sc_hd__o21a_2
*I *2243:X O *D sky130_fd_sc_hd__dlygate4sd3_1
*CAP
1 *1915:A1 0.000231658
2 *2243:X 0.000231658
3 *1915:A1 *1915:A2 8.35642e-05
4 red[4] *1915:A1 0
5 *1802:A *1915:A1 8.53113e-06
6 *1802:B *1915:A1 0
7 *1907:A1 *1915:A1 0
8 *2220:A *1915:A1 0
9 *636:12 *1915:A1 7.23602e-05
*RES
1 *2243:X *1915:A1 11.67 
*END

*D_NET *649 0.00129438
*CONN
*I *1757:A1 I *D sky130_fd_sc_hd__mux2_1
*I *2244:X O *D sky130_fd_sc_hd__dlygate4sd3_1
*CAP
1 *1757:A1 0.000215266
2 *2244:X 0.000215266
3 *1757:A1 *1750:C_N 0.000375693
4 *1757:A1 *712:25 5.17961e-05
5 *1757:A0 *1757:A1 4.82863e-05
6 *433:12 *1757:A1 8.53113e-06
7 *436:12 *1757:A1 0.000379544
*RES
1 *2244:X *1757:A1 13.29 
*END

*D_NET *650 0.00127042
*CONN
*I *1836:A I *D sky130_fd_sc_hd__or4b_2
*I *2245:X O *D sky130_fd_sc_hd__dlygate4sd3_1
*CAP
1 *1836:A 0.000387669
2 *2245:X 0.000387669
3 *1659:B *1836:A 0.000116158
4 *1835:B1 *1836:A 2.39856e-05
5 *1835:C1 *1836:A 0.00022786
6 *1836:C *1836:A 6.28765e-05
7 *366:23 *1836:A 6.42013e-05
*RES
1 *2245:X *1836:A 12.825 
*END

*D_NET *651 0.00489197
*CONN
*I *1925:B1 I *D sky130_fd_sc_hd__a31o_2
*I *2246:X O *D sky130_fd_sc_hd__dlygate4sd3_1
*CAP
1 *1925:B1 0.00105374
2 *2246:X 0.00105374
3 *1925:B1 *1925:A2 8.4421e-05
4 *1925:B1 *2011:A 7.32097e-05
5 *1925:B1 *2121:D 4.1652e-06
6 red[1] *1925:B1 0.000329664
7 *1650:B *1925:B1 8.39202e-06
8 *1922:A *1925:B1 1.06022e-05
9 *1922:C *1925:B1 0.000103564
10 *1925:A3 *1925:B1 3.92416e-05
11 *1931:C *1925:B1 0.00146821
12 *2044:CLK *1925:B1 0.000140089
13 *2044:D *1925:B1 1.35463e-05
14 *2045:D *1925:B1 0.000275041
15 *2122:SET_B *1925:B1 0.000234342
*RES
1 *2246:X *1925:B1 14.8731 
*END

*D_NET *652 0.000912737
*CONN
*I *1806:A I *D sky130_fd_sc_hd__xnor2_2
*I *2247:X O *D sky130_fd_sc_hd__dlygate4sd3_1
*CAP
1 *1806:A 0.000157646
2 *2247:X 0.000157646
3 *1806:A *687:36 0.00015635
4 *1806:A *687:47 0.000126569
5 *360:21 *1806:A 0.000282919
6 *362:26 *1806:A 3.16074e-05
*RES
1 *2247:X *1806:A 11.76 
*END

*D_NET *653 0.000715621
*CONN
*I *1764:A I *D sky130_fd_sc_hd__and2_2
*I *2248:X O *D sky130_fd_sc_hd__dlygate4sd3_1
*CAP
1 *1764:A 0.000280438
2 *2248:X 0.000280438
3 *1764:A *712:42 3.45588e-05
4 *1764:A *731:124 0.000120186
5 *437:23 *1764:A 0
*RES
1 *2248:X *1764:A 11.1 
*END

*D_NET *654 0.000155599
*CONN
*I *1890:A I *D sky130_fd_sc_hd__nor2_2
*I *2249:X O *D sky130_fd_sc_hd__dlygate4sd3_1
*CAP
1 *1890:A 4.36482e-05
2 *2249:X 4.36482e-05
3 *2033:CLK *1890:A 4.66108e-05
4 *2249:A *1890:A 2.16917e-05
*RES
1 *2249:X *1890:A 3.995 
*END

*D_NET *655 0.00109407
*CONN
*I *1929:A I *D sky130_fd_sc_hd__nand4_2
*I *2250:X O *D sky130_fd_sc_hd__dlygate4sd3_1
*CAP
1 *1929:A 0.000176897
2 *2250:X 0.000176897
3 *1929:A *1619:A 4.77807e-05
4 *1929:B *1929:A 4.66108e-05
5 *1930:A1 *1929:A 0.000410501
6 *527:8 *1929:A 0.000116551
7 *527:17 *1929:A 0.000118836
*RES
1 *2250:X *1929:A 8.15 
*END

*D_NET *656 0.000453042
*CONN
*I *1826:A1 I *D sky130_fd_sc_hd__a21oi_2
*I *2251:X O *D sky130_fd_sc_hd__dlygate4sd3_1
*CAP
1 *1826:A1 0.000129741
2 *2251:X 0.000129741
3 *1826:A1 *688:27 8.23457e-05
4 *1631:C *1826:A1 1.70935e-05
5 *1826:A2 *1826:A1 2.34345e-05
6 *1827:B *1826:A1 7.06865e-05
*RES
1 *2251:X *1826:A1 9.375 
*END

*D_NET *657 0.00164686
*CONN
*I *1916:A1 I *D sky130_fd_sc_hd__a21oi_2
*I *2252:X O *D sky130_fd_sc_hd__dlygate4sd3_1
*CAP
1 *1916:A1 0.000411715
2 *2252:X 0.000411715
3 *1916:A1 *1916:A2 0
4 *1916:A1 *2285:A 3.18339e-05
5 *1907:B1 *1916:A1 0.000107608
6 *1916:B1 *1916:A1 0
7 *1918:A *1916:A1 4.66108e-05
8 *1919:A1 *1916:A1 8.39446e-05
9 *1930:A1 *1916:A1 4.87939e-05
10 *1931:B *1916:A1 4.35869e-05
11 *2038:D *1916:A1 6.72196e-05
12 *2046:CLK *1916:A1 0.000120181
13 *2277:A *1916:A1 0.000109275
14 *521:31 *1916:A1 4.96313e-05
15 *547:52 *1916:A1 2.46271e-05
16 *547:65 *1916:A1 4.91927e-05
17 *547:71 *1916:A1 2.31602e-05
18 *625:20 *1916:A1 1.77665e-05
*RES
1 *2252:X *1916:A1 15.96 
*END

*D_NET *658 0.00848541
*CONN
*I *1925:A1 I *D sky130_fd_sc_hd__a31o_2
*I *1923:A1 I *D sky130_fd_sc_hd__a31o_2
*I *1926:B I *D sky130_fd_sc_hd__and2_2
*I *2282:A I *D sky130_fd_sc_hd__clkdlybuf4s25_1
*I *2184:A I *D sky130_fd_sc_hd__dlygate4sd3_1
*I *2044:Q O *D sky130_fd_sc_hd__dfxtp_2
*CAP
1 *1925:A1 0.000694742
2 *1923:A1 0.000163511
3 *1926:B 0
4 *2282:A 0.000235939
5 *2184:A 0.000245926
6 *2044:Q 0.000192469
7 *658:40 0.000325226
8 *658:36 0.0016985
9 *658:21 0.00134413
10 *658:6 0.000704542
11 *1923:A1 *2285:A 1.9308e-05
12 *1923:A1 *2288:A 0.000248135
13 *1923:A1 *670:87 0
14 *1923:A1 *670:100 1.33285e-05
15 *1923:A1 *670:115 6.409e-05
16 *1925:A1 *1930:B1 0.000117224
17 *1925:A1 *2121:D 6.52347e-05
18 *2184:A *2284:A 0.000282619
19 *658:36 *1930:B1 2.33079e-05
20 *658:40 *2250:A 4.66918e-05
21 *658:40 *2285:A 7.8817e-05
22 *658:40 *670:87 0
23 Hsync *2184:A 2.68464e-05
24 Vsync *2184:A 3.04704e-05
25 pcRegister[31] *2184:A 0.000173724
26 red[1] *658:6 2.52774e-05
27 red[1] *658:21 2.38126e-05
28 *1922:A *658:36 9.83921e-06
29 *1922:B *2184:A 0.00016031
30 *1922:C *2184:A 0
31 *1924:A1 *2282:A 0.000197726
32 *1924:B1 *1923:A1 3.27181e-05
33 *1925:A3 *1925:A1 4.89295e-05
34 *2044:D *658:21 0.000110013
35 *2044:D *658:36 0.000196078
36 *2046:D *658:36 0.000145921
37 *2121:SET_B *1925:A1 4.23428e-05
38 *2277:A *658:36 2.01612e-05
39 *2280:A *2282:A 5.72091e-05
40 *169:79 *658:36 0.000170586
41 *521:31 *2282:A 0
42 *527:30 *1923:A1 0.000157394
43 *549:55 *1925:A1 5.76339e-05
44 *549:68 *1925:A1 2.58336e-05
45 *625:39 *2282:A 0
46 *647:12 *2282:A 0.000208835
*RES
1 *2044:Q *658:6 3.775 
2 *658:6 *2184:A 11.78 
3 *658:6 *658:21 3.21 
4 *658:21 *2282:A 11.105 
5 *658:21 *658:36 10.11 
6 *658:36 *658:40 4.91 
7 *658:40 *1926:B 3.6 
8 *658:40 *1923:A1 7.815 
9 *658:36 *1925:A1 10.33 
*END

*D_NET *659 0.00872899
*CONN
*I *1846:A1 I *D sky130_fd_sc_hd__a21oi_2
*I *1847:A2 I *D sky130_fd_sc_hd__a31o_2
*I *1844:A1 I *D sky130_fd_sc_hd__a21oi_2
*I *1845:A1 I *D sky130_fd_sc_hd__o21a_2
*I *1849:A2 I *D sky130_fd_sc_hd__a31oi_2
*I *1850:C I *D sky130_fd_sc_hd__and4_2
*I *2283:A I *D sky130_fd_sc_hd__clkdlybuf4s25_1
*I *1852:D I *D sky130_fd_sc_hd__and4_2
*I *2017:Q O *D sky130_fd_sc_hd__dfxtp_2
*CAP
1 *1846:A1 0.000373406
2 *1847:A2 0
3 *1844:A1 0
4 *1845:A1 0
5 *1849:A2 0.000186629
6 *1850:C 3.70446e-05
7 *2283:A 0
8 *1852:D 6.47988e-05
9 *2017:Q 0
10 *659:82 0.000511802
11 *659:44 0.000505516
12 *659:38 0.000321756
13 *659:36 6.70992e-05
14 *659:32 0.000246276
15 *659:14 0.000766444
16 *659:4 0.000782341
17 *1846:A1 *1847:A1 3.41406e-05
18 *1846:A1 *1847:B1 8.06286e-05
19 *1849:A2 *1847:A1 0
20 *1849:A2 *1850:A 0.000287918
21 *1849:A2 *2290:A 2.87686e-05
22 *1849:A2 *662:14 0
23 *1850:C *1850:B 2.49909e-05
24 *1852:D *666:22 4.7101e-05
25 *659:14 *1856:B1 1.22676e-05
26 *659:14 *666:22 6.19997e-05
27 *659:14 *678:16 0
28 *659:32 *1844:B1 0
29 *659:32 *678:28 0
30 *659:36 *1847:A1 1.61831e-05
31 *659:38 *1847:A1 8.5108e-05
32 *659:44 *1847:A1 0.000503884
33 *659:44 *1850:B 7.18832e-05
34 *659:44 *662:29 0.000131185
35 *659:82 *1847:A1 3.68794e-05
36 *1733:B *1846:A1 4.57056e-05
37 *1845:A2 *659:36 0
38 *1845:A2 *659:44 3.3249e-05
39 *1845:B1 *659:38 4.82919e-05
40 *1846:B1 *1846:A1 0.00014984
41 *1846:B1 *659:36 4.82863e-05
42 *1846:B1 *659:38 0.000108761
43 *1846:B1 *659:44 0.000177754
44 *1846:B1 *659:82 0.000703065
45 *1847:A3 *659:82 0.00054391
46 *1848:A *1846:A1 2.10214e-05
47 *1848:B *659:14 8.41384e-05
48 *1849:A3 *1849:A2 0.000361047
49 *1850:D *1850:C 4.77719e-05
50 *1856:A2 *659:14 2.97004e-06
51 *2020:CLK *1852:D 0.000313852
52 *2020:D *1852:D 0.00043044
53 *2020:D *659:14 0.000160635
54 *2064:RESET_B *659:14 8.61593e-05
55 *447:30 *659:14 0
56 *447:30 *659:32 5.76922e-05
57 *481:14 *1850:C 1.06624e-05
58 *481:14 *659:44 7.68414e-06
59 *536:10 *659:14 0
*RES
1 *2017:Q *659:4 1.6 
2 *659:4 *659:14 15.31 
3 *659:14 *1852:D 5.5 
4 *659:14 *2283:A 1.6 
5 *659:4 *659:32 5.38 
6 *659:32 *659:36 0.81 
7 *659:36 *659:38 1.83 
8 *659:38 *659:44 8.16 
9 *659:44 *1850:C 2.395 
10 *659:44 *1849:A2 10.94 
11 *659:38 *1845:A1 1.6 
12 *659:36 *1844:A1 1.6 
13 *659:32 *659:82 7.0725 
14 *659:82 *1847:A2 1.6 
15 *659:82 *1846:A1 8.0275 
*END

*D_NET *660 0.00521558
*CONN
*I *1926:A I *D sky130_fd_sc_hd__and2_2
*I *2246:A I *D sky130_fd_sc_hd__dlygate4sd3_1
*I *2284:A I *D sky130_fd_sc_hd__clkdlybuf4s25_1
*I *2045:Q O *D sky130_fd_sc_hd__dfxtp_2
*CAP
1 *1926:A 0.00036266
2 *2246:A 1.02931e-05
3 *2284:A 0.000285319
4 *2045:Q 0.000142169
5 *660:27 0.000629906
6 *660:6 0.000684441
7 *1926:A *1923:B1 0.000123308
8 *1926:A *1927:B1 4.66108e-05
9 *1926:A *2288:A 0.000991916
10 *2246:A *2288:A 4.77719e-05
11 pcRegister[28] *2284:A 7.33706e-05
12 pcRegister[31] *2284:A 4.36573e-06
13 *1919:B1 *1926:A 4.77807e-05
14 *1922:A *2284:A 0
15 *1922:A *660:6 0.00011201
16 *1922:A *660:27 0.000131028
17 *1922:B *1926:A 0.000277944
18 *1922:B *2246:A 4.77719e-05
19 *1924:B1 *1926:A 3.1191e-05
20 *1929:D *1926:A 4.12775e-05
21 *2043:D *2284:A 0
22 *2044:D *1926:A 7.59091e-05
23 *2122:SET_B *1926:A 0.000609399
24 *2184:A *2284:A 0.000282619
25 *2278:A *2284:A 8.33066e-06
26 *527:23 *1926:A 0.000148191
*RES
1 *2045:Q *660:6 3.43 
2 *660:6 *2284:A 11.435 
3 *660:6 *660:27 7.555 
4 *660:27 *2246:A 2.05 
5 *660:27 *1926:A 23.19 
*END

*D_NET *661 0.00378488
*CONN
*I *1930:B1 I *D sky130_fd_sc_hd__a31o_2
*I *2285:A I *D sky130_fd_sc_hd__clkdlybuf4s25_1
*I *2250:A I *D sky130_fd_sc_hd__dlygate4sd3_1
*I *2046:Q O *D sky130_fd_sc_hd__dfxtp_2
*CAP
1 *1930:B1 0.000303128
2 *2285:A 0.000547701
3 *2250:A 0.000121231
4 *2046:Q 0
5 *661:6 0.000668932
6 *661:4 0.000303128
7 *1930:B1 *670:87 5.82825e-05
8 *2250:A *1619:A 8.53011e-05
9 *2250:A *670:70 0
10 *2250:A *688:87 0.00019342
11 *2285:A *1916:A2 5.90595e-05
12 *2285:A *688:87 0.000103243
13 *1916:A1 *2285:A 3.18339e-05
14 *1918:A *2285:A 4.84799e-05
15 *1921:B *2250:A 8.8266e-05
16 *1923:A1 *2285:A 1.9308e-05
17 *1924:B1 *2285:A 4.85118e-05
18 *1925:A1 *1930:B1 0.000117224
19 *1928:A_N *1930:B1 4.89395e-05
20 *1929:D *2285:A 0.000302118
21 *1930:A1 *1930:B1 5.41182e-05
22 *1930:A3 *1930:B1 8.53011e-05
23 *2044:D *2285:A 2.19562e-06
24 *2045:D *2285:A 8.64488e-05
25 *2277:A *1930:B1 0.000196084
26 *527:23 *2285:A 1.6032e-05
27 *547:71 *2285:A 4.77769e-05
28 *658:36 *1930:B1 2.33079e-05
29 *658:40 *2250:A 4.66918e-05
30 *658:40 *2285:A 7.8817e-05
*RES
1 *2046:Q *661:4 1.6 
2 *661:4 *661:6 2 
3 *661:6 *2250:A 6.795 
4 *661:6 *2285:A 12.69 
5 *661:4 *1930:B1 12.53 
*END

*D_NET *662 0.00688341
*CONN
*I *2286:A I *D sky130_fd_sc_hd__clkdlybuf4s25_1
*I *1852:C I *D sky130_fd_sc_hd__and4_2
*I *1849:A1 I *D sky130_fd_sc_hd__a31oi_2
*I *2224:A I *D sky130_fd_sc_hd__dlygate4sd3_1
*I *1850:B I *D sky130_fd_sc_hd__and4_2
*I *1847:A1 I *D sky130_fd_sc_hd__a31o_2
*I *2018:Q O *D sky130_fd_sc_hd__dfxtp_2
*CAP
1 *2286:A 0.000104526
2 *1852:C 0
3 *1849:A1 3.07586e-05
4 *2224:A 0
5 *1850:B 6.62626e-05
6 *1847:A1 0.00100363
7 *2018:Q 3.58256e-05
8 *662:60 0.000431707
9 *662:45 0.000434109
10 *662:29 0.000115571
11 *662:14 0.00126859
12 *662:8 0.000327652
13 *1849:A1 *2191:A 8.52845e-05
14 *2286:A *1865:D 2.97004e-06
15 *2286:A *666:41 4.19967e-05
16 *662:14 *1850:A 0
17 *662:60 *1852:B 0.000386706
18 *662:60 *2290:A 0.000413696
19 *662:60 *666:41 0.000103306
20 *1845:B1 *1847:A1 4.99619e-05
21 *1845:B1 *662:14 0
22 *1846:A1 *1847:A1 3.41406e-05
23 *1847:A3 *1847:A1 0.000450123
24 *1848:A *1849:A1 2.49909e-05
25 *1848:A *662:14 8.30853e-06
26 *1848:A *662:45 6.05336e-05
27 *1849:A2 *1847:A1 0
28 *1849:A2 *662:14 0
29 *1850:C *1850:B 2.49909e-05
30 *2018:CLK *662:8 2.69217e-05
31 *2020:D *2286:A 7.66083e-05
32 *2020:D *662:60 8.40269e-05
33 *481:14 *1850:B 9.10429e-05
34 *481:14 *662:14 0
35 *481:14 *662:29 0.000137881
36 *482:8 *2286:A 0.000116165
37 *659:36 *1847:A1 1.61831e-05
38 *659:38 *1847:A1 8.5108e-05
39 *659:44 *1847:A1 0.000503884
40 *659:44 *1850:B 7.18832e-05
41 *659:44 *662:29 0.000131185
42 *659:82 *1847:A1 3.68794e-05
*RES
1 *2018:Q *662:8 4.05 
2 *662:8 *662:14 3.21 
3 *662:14 *1847:A1 17.685 
4 *662:14 *662:29 4.175 
5 *662:29 *1850:B 3.445 
6 *662:29 *2224:A 1.6 
7 *662:8 *662:45 1.38 
8 *662:45 *1849:A1 4.395 
9 *662:45 *662:60 9.785 
10 *662:60 *1852:C 1.6 
11 *662:60 *2286:A 7.775 
*END

*D_NET *663 0.00393513
*CONN
*I *1852:B I *D sky130_fd_sc_hd__and4_2
*I *2191:A I *D sky130_fd_sc_hd__dlygate4sd3_1
*I *1850:A I *D sky130_fd_sc_hd__and4_2
*I *2287:A I *D sky130_fd_sc_hd__clkdlybuf4s25_1
*I *2019:Q O *D sky130_fd_sc_hd__dfxtp_2
*CAP
1 *1852:B 0.000286582
2 *2191:A 0.000162105
3 *1850:A 0.000294105
4 *2287:A 6.16635e-05
5 *2019:Q 0
6 *663:25 0.000589276
7 *663:8 0.000220542
8 *663:4 0.000312395
9 *1850:A *2290:A 7.50846e-06
10 *1852:B *1854:A 0.000122797
11 *1852:B *2291:A 0
12 *1852:B *665:12 6.13951e-05
13 *2191:A *2290:A 8.70195e-05
14 *663:8 *1854:A 4.77757e-05
15 *663:25 *2290:A 4.00201e-05
16 *1848:A *2191:A 9.88962e-05
17 *1849:A1 *2191:A 8.52845e-05
18 *1849:A2 *1850:A 0.000287918
19 *1849:B1 *2191:A 0.000234763
20 *1851:B *2191:A 0.000383685
21 *2020:CLK *1852:B 8.23457e-05
22 *2020:D *1852:B 8.23457e-05
23 *662:14 *1850:A 0
24 *662:60 *1852:B 0.000386706
*RES
1 *2019:Q *663:4 1.6 
2 *663:4 *663:8 2.45 
3 *663:8 *2287:A 4.665 
4 *663:8 *663:25 4.085 
5 *663:25 *1850:A 10.775 
6 *663:25 *2191:A 7.57 
7 *663:4 *1852:B 12.23 
*END

*D_NET *664 0.00311402
*CONN
*I *2288:A I *D sky130_fd_sc_hd__clkdlybuf4s25_1
*I *2122:Q O *D sky130_fd_sc_hd__dfstp_2
*CAP
1 *2288:A 0.000275263
2 *2122:Q 0.000275263
3 *2288:A *670:115 3.51783e-05
4 Hsync *2288:A 0.000422332
5 *1919:B1 *2288:A 0.000129497
6 *1922:B *2288:A 0.000253772
7 *1923:A1 *2288:A 0.000248135
8 *1924:B1 *2288:A 4.77807e-05
9 *1926:A *2288:A 0.000991916
10 *2122:SET_B *2288:A 0.000277591
11 *2246:A *2288:A 4.77719e-05
12 *527:30 *2288:A 0.00010952
*RES
1 *2122:Q *2288:A 17.12 
*END

*D_NET *665 0.00154201
*CONN
*I *1852:A I *D sky130_fd_sc_hd__and4_2
*I *2172:A I *D sky130_fd_sc_hd__dlygate4sd3_1
*I *2289:A I *D sky130_fd_sc_hd__clkdlybuf4s25_1
*I *2020:Q O *D sky130_fd_sc_hd__dfxtp_2
*CAP
1 *1852:A 7.94247e-05
2 *2172:A 0
3 *2289:A 5.16221e-05
4 *2020:Q 0.000489064
5 *665:12 0.000130352
6 *665:6 0.000647218
7 *665:12 *2291:A 0
8 *1852:B *665:12 6.13951e-05
9 *2020:CLK *1852:A 4.7003e-05
10 *2020:CLK *665:6 5.83121e-06
11 *2020:D *665:6 3.00957e-05
*RES
1 *2020:Q *665:6 6.88 
2 *665:6 *665:12 5.38 
3 *665:12 *2289:A 2.41 
4 *665:12 *2172:A 1.6 
5 *665:6 *1852:A 2.755 
*END

*D_NET *666 0.0095134
*CONN
*I *1859:B I *D sky130_fd_sc_hd__and3_2
*I *2240:A I *D sky130_fd_sc_hd__dlygate4sd3_1
*I *1858:A1 I *D sky130_fd_sc_hd__a21oi_2
*I *1856:A1 I *D sky130_fd_sc_hd__a21oi_2
*I *1865:D I *D sky130_fd_sc_hd__and4_2
*I *1861:C I *D sky130_fd_sc_hd__and4_2
*I *2290:A I *D sky130_fd_sc_hd__clkdlybuf4s25_1
*I *2021:Q O *D sky130_fd_sc_hd__dfxtp_2
*CAP
1 *1859:B 0
2 *2240:A 8.80568e-05
3 *1858:A1 4.71381e-05
4 *1856:A1 3.55506e-05
5 *1865:D 0.000390304
6 *1861:C 7.98666e-05
7 *2290:A 0.000577875
8 *2021:Q 0.000109413
9 *666:41 0.000614304
10 *666:22 0.00121387
11 *666:16 0.000840465
12 *666:10 0.000595665
13 *666:8 0.000323529
14 *666:6 0.000109413
15 *1861:C *667:18 0.000424121
16 *1865:D *1865:C 4.66108e-05
17 *1865:D *1867:A 3.59882e-05
18 *1865:D *2296:A 0.000139245
19 *1865:D *668:44 0.000160658
20 *1865:D *679:79 1.07797e-05
21 *2240:A *1881:A 6.97868e-05
22 *666:10 *1881:A 5.92191e-05
23 *666:10 *679:48 0.000151406
24 *666:16 *1711:A1 0.000141442
25 *666:16 *679:23 2.15594e-05
26 *666:16 *705:22 3.66286e-05
27 pcRegister[0] *2290:A 4.89295e-05
28 *1609:A *2240:A 9.50342e-06
29 *1710:A2 *666:16 0.000157274
30 *1710:B1_N *666:16 4.66826e-05
31 *1711:B1_N *1858:A1 4.66108e-05
32 *1713:A2 *666:10 0.000147397
33 *1849:A2 *2290:A 2.87686e-05
34 *1849:A3 *2290:A 2.49909e-05
35 *1850:A *2290:A 7.50846e-06
36 *1851:B *2290:A 4.77807e-05
37 *1852:D *666:22 4.7101e-05
38 *1853:A *1858:A1 3.83194e-05
39 *1860:B *1858:A1 5.83121e-06
40 *1867:C *1865:D 6.39729e-05
41 *2020:CLK *666:22 0.000232262
42 *2020:D *666:16 8.65257e-05
43 *2020:D *666:22 7.68414e-06
44 *2021:CLK *1865:D 0.000118081
45 *2022:CLK *1865:D 0.000138389
46 *2023:D *1865:D 3.83194e-05
47 *2063:D *666:10 9.61041e-05
48 *2065:D *666:16 0
49 *2089:RESET_B *2240:A 9.30717e-05
50 *2191:A *2290:A 8.70195e-05
51 *2286:A *1865:D 2.97004e-06
52 *2286:A *666:41 4.19967e-05
53 *402:8 *1858:A1 4.41506e-05
54 *402:10 *666:10 5.13684e-05
55 *402:10 *666:16 1.93416e-05
56 *404:22 *666:10 0
57 *482:8 *1865:D 0
58 *482:34 *1865:D 2.31596e-05
59 *483:18 *1858:A1 8.34281e-06
60 *483:39 *1861:C 0.000461017
61 *487:8 *666:6 0.000160635
62 *492:43 *2240:A 8.10063e-05
63 *492:43 *666:10 5.93674e-05
64 *536:8 *666:41 0
65 *536:10 *2290:A 0
66 *536:10 *666:41 0
67 *659:14 *666:22 6.19997e-05
68 *662:60 *2290:A 0.000413696
69 *662:60 *666:41 0.000103306
70 *663:25 *2290:A 4.00201e-05
*RES
1 *2021:Q *666:6 3.085 
2 *666:6 *666:8 2 
3 *666:8 *666:10 5.715 
4 *666:10 *666:16 8.3 
5 *666:16 *666:22 8.675 
6 *666:22 *2290:A 14.22 
7 *666:22 *666:41 2.655 
8 *666:41 *1861:C 7.845 
9 *666:41 *1865:D 11.775 
10 *666:16 *1856:A1 2.215 
11 *666:10 *1858:A1 4.74 
12 *666:8 *2240:A 6.255 
13 *666:6 *1859:B 1.6 
*END

*D_NET *667 0.00629288
*CONN
*I *1859:A I *D sky130_fd_sc_hd__and3_2
*I *1865:C I *D sky130_fd_sc_hd__and4_2
*I *2217:A I *D sky130_fd_sc_hd__dlygate4sd3_1
*I *1861:B I *D sky130_fd_sc_hd__and4_2
*I *2291:A I *D sky130_fd_sc_hd__clkdlybuf4s25_1
*I *2022:Q O *D sky130_fd_sc_hd__dfxtp_2
*CAP
1 *1859:A 0.000118058
2 *1865:C 0.000326815
3 *2217:A 0
4 *1861:B 0
5 *2291:A 0.000346282
6 *2022:Q 0
7 *667:55 0.000767505
8 *667:18 0.00060795
9 *667:12 0.000350037
10 *667:4 0.000411001
11 *667:12 *677:50 7.17811e-05
12 *667:18 *1861:A 4.94474e-05
13 pcRegister[3] *2291:A 1.88656e-05
14 pcRegister[3] *667:18 8.7152e-06
15 pcRegister[4] *2291:A 0
16 pcRegister[4] *667:18 0
17 pcRegister[5] *2291:A 2.86975e-05
18 *1852:B *2291:A 0
19 *1857:B1 *667:55 0
20 *1859:C *1859:A 0.000160641
21 *1860:B *667:18 0.00061306
22 *1860:C *667:55 0.00031209
23 *1861:C *667:18 0.000424121
24 *1863:A2 *667:55 6.52111e-05
25 *1865:D *1865:C 4.66108e-05
26 *1867:C *667:12 0.000120655
27 *1867:C *667:55 0.0001249
28 *2021:CLK *1865:C 0.000139359
29 *2021:D *1865:C 1.54049e-05
30 *2023:D *1865:C 0.000295564
31 *447:26 *667:55 3.32238e-05
32 *482:12 *667:12 0.000120655
33 *482:12 *667:55 0.000114024
34 *483:39 *667:18 0.000263421
35 *487:8 *1859:A 8.67385e-05
36 *491:8 *1865:C 4.01778e-05
37 *535:106 *667:55 0.000138204
38 *536:8 *667:12 7.3664e-05
39 *665:12 *2291:A 0
*RES
1 *2022:Q *667:4 1.6 
2 *667:4 *667:12 6.775 
3 *667:12 *667:18 10.91 
4 *667:18 *2291:A 8.97 
5 *667:18 *1861:B 3.6 
6 *667:12 *2217:A 1.6 
7 *667:4 *667:55 10.885 
8 *667:55 *1865:C 8.395 
9 *667:55 *1859:A 4.12 
*END

*D_NET *668 0.0042326
*CONN
*I *2292:A I *D sky130_fd_sc_hd__clkdlybuf4s25_1
*I *1865:B I *D sky130_fd_sc_hd__and4_2
*I *2177:A I *D sky130_fd_sc_hd__dlygate4sd3_1
*I *1861:A I *D sky130_fd_sc_hd__and4_2
*I *2023:Q O *D sky130_fd_sc_hd__dfxtp_2
*CAP
1 *2292:A 0.000216988
2 *1865:B 0
3 *2177:A 2.09808e-05
4 *1861:A 0.00031313
5 *2023:Q 0.000121914
6 *668:44 0.000353253
7 *668:31 0.000204688
8 *668:12 0.000482485
9 *1861:A *1860:A 2.26364e-05
10 *1861:A *2296:A 2.61042e-05
11 *2292:A *2296:A 6.63413e-05
12 *2292:A *679:79 9.30717e-05
13 *2292:A *679:89 0.000315331
14 *2292:A *697:14 2.3379e-05
15 *668:12 *2296:A 9.64069e-05
16 *668:31 *1860:A 4.98818e-05
17 *668:31 *2296:A 0.000197632
18 *668:31 *677:50 2.86975e-05
19 *668:44 *1867:A 0.000158072
20 *668:44 *2296:A 0.000246799
21 *668:44 *677:50 8.03234e-05
22 *668:44 *679:79 0.00018305
23 pcRegister[4] *1861:A 0
24 *1860:B *1861:A 0
25 *1862:B *668:12 0.000196568
26 *1862:B *668:31 3.57349e-05
27 *1864:B *668:12 5.39718e-05
28 *1865:D *668:44 0.000160658
29 *1872:B *2292:A 1.79174e-05
30 *1880:A *2292:A 2.16878e-05
31 *2024:D *1861:A 0.000156468
32 *2024:D *668:12 0
33 *482:34 *2292:A 0.0001912
34 *488:10 *1861:A 0
35 *495:26 *2292:A 4.77807e-05
36 *667:18 *1861:A 4.94474e-05
*RES
1 *2023:Q *668:12 8.555 
2 *668:12 *1861:A 10.79 
3 *668:12 *668:31 1.83 
4 *668:31 *2177:A 1.96 
5 *668:31 *668:44 7.01 
6 *668:44 *1865:B 3.6 
7 *668:44 *2292:A 9.765 
*END

*D_NET *669 0.00132971
*CONN
*I *2236:A I *D sky130_fd_sc_hd__dlygate4sd3_1
*I *2293:A I *D sky130_fd_sc_hd__clkdlybuf4s25_1
*I *1865:A I *D sky130_fd_sc_hd__and4_2
*I *2024:Q O *D sky130_fd_sc_hd__dfxtp_2
*CAP
1 *2236:A 0
2 *2293:A 0.000192002
3 *1865:A 0.000130258
4 *2024:Q 0.000142055
5 *669:23 0.000192002
6 *669:10 0.000272313
7 *1864:A *2293:A 1.83847e-05
8 *2021:CLK *1865:A 2.49909e-05
9 *2023:D *1865:A 8.23457e-05
10 *2024:D *1865:A 0
11 *2024:D *669:10 0
12 *543:10 *669:10 3.1562e-06
13 *543:16 *669:10 4.11678e-06
14 *543:66 *1865:A 0.00015518
15 *543:66 *669:10 0.000112907
*RES
1 *2024:Q *669:10 5.775 
2 *669:10 *1865:A 6.285 
3 *669:10 *669:23 2 
4 *669:23 *2293:A 4.585 
5 *669:23 *2236:A 1.6 
*END

*D_NET *670 0.0121196
*CONN
*I *1917:A3 I *D sky130_fd_sc_hd__a31o_2
*I *1919:A3 I *D sky130_fd_sc_hd__a31o_2
*I *1916:A2 I *D sky130_fd_sc_hd__a21oi_2
*I *1923:A2 I *D sky130_fd_sc_hd__a31o_2
*I *1927:A1 I *D sky130_fd_sc_hd__a31o_2
*I *1925:A2 I *D sky130_fd_sc_hd__a31o_2
*I *1921:A I *D sky130_fd_sc_hd__nand2_2
*I *1915:A2 I *D sky130_fd_sc_hd__o21a_2
*I *1912:B I *D sky130_fd_sc_hd__nor2_2
*I *1914:A2 I *D sky130_fd_sc_hd__a21oi_2
*I *2154:X O *D sky130_fd_sc_hd__clkdlybuf4s25_1
*CAP
1 *1917:A3 1.65687e-05
2 *1919:A3 0
3 *1916:A2 0.000132533
4 *1923:A2 0
5 *1927:A1 0
6 *1925:A2 0.000375294
7 *1921:A 1.56579e-05
8 *1915:A2 0.000186818
9 *1912:B 0.000395412
10 *1914:A2 3.79625e-05
11 *2154:X 0.000533623
12 *670:115 0.000314983
13 *670:100 0.00053271
14 *670:87 0.000566311
15 *670:70 0.000943334
16 *670:62 0.000458709
17 *670:51 0.000293825
18 *670:36 0.00080255
19 *670:23 0.000911968
20 *670:14 0.000660426
21 *1916:A2 *1923:B1 3.18321e-05
22 *1925:A2 *2011:A 0.000726556
23 *1925:A2 *687:70 6.16226e-06
24 *670:70 *1619:A 0
25 *670:70 *688:87 0
26 red[0] *1912:B 1.88602e-05
27 *1908:A1 *670:14 5.6458e-05
28 *1908:A2 *670:14 6.94735e-06
29 *1908:B1 *1912:B 0
30 *1911:B *1912:B 0.000105086
31 *1915:A1 *1915:A2 8.35642e-05
32 *1915:B1 *1915:A2 0.000246832
33 *1915:B1 *670:36 0.000454343
34 *1916:A1 *1916:A2 0
35 *1917:A1 *1917:A3 4.77757e-05
36 *1917:A1 *670:51 8.58339e-06
37 *1917:A1 *670:62 0.000107942
38 *1917:A2 *670:70 2.2684e-05
39 *1918:A *1916:A2 3.69521e-05
40 *1918:B *670:70 1.88602e-05
41 *1919:A1 *1916:A2 3.55585e-05
42 *1919:A2 *1916:A2 1.88656e-05
43 *1921:B *670:70 0
44 *1922:B *670:115 6.04802e-05
45 *1923:A1 *670:87 0
46 *1923:A1 *670:100 1.33285e-05
47 *1923:A1 *670:115 6.409e-05
48 *1925:B1 *1925:A2 8.4421e-05
49 *1927:A2 *670:87 9.12494e-06
50 *1927:A2 *670:100 7.03219e-05
51 *1929:D *1916:A2 8.7152e-06
52 *1930:A1 *670:87 0
53 *1930:B1 *670:87 5.82825e-05
54 *1931:C *1925:A2 0.000429187
55 *2038:D *1912:B 0
56 *2042:D *1912:B 0.000270633
57 *2043:CLK *670:14 8.8149e-05
58 *2043:CLK *670:23 1.17309e-05
59 *2044:D *1916:A2 1.32026e-05
60 *2108:D *670:70 0.000164686
61 *2206:A *1912:B 7.39409e-05
62 *2250:A *670:70 0
63 *2275:A *670:14 0.000235339
64 *2276:A *670:14 0
65 *2277:A *1916:A2 0
66 *2279:A *1912:B 3.62098e-05
67 *2285:A *1916:A2 5.90595e-05
68 *2288:A *670:115 3.51783e-05
69 *521:8 *1912:B 0
70 *521:31 *1912:B 0
71 *527:30 *670:100 0.000418252
72 *528:20 *670:36 6.29692e-05
73 *528:20 *670:51 0.000179208
74 *547:8 *1912:B 6.55328e-05
75 *547:19 *1912:B 0.000102935
76 *547:30 *1912:B 2.05661e-05
77 *549:55 *670:70 0
78 *591:10 *1912:B 1.70935e-05
79 *602:21 *1912:B 3.68682e-05
80 *625:20 *1914:A2 5.4155e-06
81 *625:20 *670:23 2.75145e-05
82 *625:20 *670:36 3.83194e-05
83 *625:24 *670:23 1.34594e-05
84 *636:12 *1915:A2 0.000132875
85 *636:20 *1921:A 0
86 *658:40 *670:87 0
*RES
1 *2154:X *670:14 13.205 
2 *670:14 *1914:A2 2.215 
3 *670:14 *670:23 1.14 
4 *670:23 *1912:B 15.395 
5 *670:23 *670:36 5.625 
6 *670:36 *1915:A2 10.805 
7 *670:36 *670:51 2.79 
8 *670:51 *1921:A 1.96 
9 *670:51 *670:62 2.19 
10 *670:62 *670:70 7.8875 
11 *670:70 *1925:A2 5.97757 
12 *670:70 *670:87 3.5475 
13 *670:87 *1927:A1 3.6 
14 *670:87 *670:100 7.115 
15 *670:100 *1923:A2 1.6 
16 *670:100 *670:115 3.36 
17 *670:115 *1916:A2 8.3075 
18 *670:115 *1919:A3 1.6 
19 *670:62 *1917:A3 2.05 
*END

*D_NET *671 0.00261508
*CONN
*I *1893:A3 I *D sky130_fd_sc_hd__a31o_2
*I *1896:D I *D sky130_fd_sc_hd__and4_2
*I *2263:X O *D sky130_fd_sc_hd__clkdlybuf4s25_1
*CAP
1 *1893:A3 0.000172139
2 *1896:D 0.00039269
3 *2263:X 2.77685e-05
4 *671:8 0.000592598
5 *1893:A3 *1890:B 0.000138204
6 *1893:A3 *1892:A 0.00011069
7 *1893:A3 *682:21 0.000268285
8 *1893:A3 *682:34 9.50342e-06
9 *1896:D *682:8 1.4683e-05
10 *671:8 *1890:B 3.86529e-05
11 *671:8 *1892:A 7.23533e-05
12 *1893:A1 *1893:A3 4.82919e-05
13 *1893:A2 *1893:A3 4.28396e-05
14 *1894:B1_N *1893:A3 0.0001249
15 *1896:A *1896:D 0.000238919
16 *2032:CLK *1896:D 0.000106716
17 *2032:D *1896:D 1.43717e-05
18 *2269:A *1896:D 3.00381e-05
19 *2270:A *1896:D 0
20 *561:37 *1896:D 0.000171437
*RES
1 *2263:X *671:8 4.47 
2 *671:8 *1896:D 11.46 
3 *671:8 *1893:A3 9.18 
*END

*D_NET *672 0.0022159
*CONN
*I *1890:B I *D sky130_fd_sc_hd__nor2_2
*I *2263:A I *D sky130_fd_sc_hd__clkdlybuf4s25_1
*I *2264:X O *D sky130_fd_sc_hd__buf_1
*CAP
1 *1890:B 0.000125546
2 *2263:A 8.7799e-05
3 *2264:X 0.000241055
4 *672:10 0.0004544
5 *1890:B *1892:A 1.23331e-05
6 *2263:A *2158:A 0.000160635
7 *672:10 *1892:A 4.43871e-06
8 *1608:A *672:10 7.23533e-05
9 *1888:B *672:10 0.000134758
10 *1893:A2 *1890:B 4.38051e-05
11 *1893:A3 *1890:B 0.000138204
12 *2268:A *672:10 0
13 *560:19 *672:10 0.000227543
14 *560:34 *672:10 7.06865e-05
15 *561:16 *1890:B 0.000116165
16 *561:16 *672:10 8.68803e-05
17 *561:61 *1890:B 0.000200648
18 *671:8 *1890:B 3.86529e-05
*RES
1 *2264:X *672:10 9.765 
2 *672:10 *2263:A 5.43 
3 *672:10 *1890:B 7.785 
*END

*D_NET *673 0.00460482
*CONN
*I *1690:D I *D sky130_fd_sc_hd__and4_2
*I *1704:B I *D sky130_fd_sc_hd__or2_2
*I *1689:B I *D sky130_fd_sc_hd__nand2_2
*I *1702:A2 I *D sky130_fd_sc_hd__a21oi_2
*I *2265:X O *D sky130_fd_sc_hd__clkbuf_2
*CAP
1 *1690:D 0.000470115
2 *1704:B 0
3 *1689:B 0
4 *1702:A2 0.000238231
5 *2265:X 0.000277758
6 *673:34 0.000789481
7 *673:21 0.000394706
8 *673:10 0.000591329
9 *1690:D *1690:B 0.000188727
10 *1690:D *1690:C 0.00015856
11 *1690:D *756:6 0.000130445
12 *1690:D *756:74 0.000155048
13 *673:10 *1814:A1 0
14 *673:10 *2002:A 2.05571e-05
15 *673:10 *700:84 0.000164847
16 *673:21 *1814:A1 0
17 *673:21 *700:84 0.000163019
18 *673:21 *753:56 4.49498e-05
19 *673:34 *1704:A 4.77769e-05
20 *1660:A *673:10 0
21 *1660:B *673:10 0
22 *1703:B *1690:D 9.48444e-05
23 *1705:A *1702:A2 5.06989e-05
24 *1705:B *1702:A2 6.38722e-05
25 *1705:C *1702:A2 5.05521e-05
26 *2066:D *1690:D 0
27 *2066:D *1702:A2 4.82919e-05
28 *2067:CLK *673:21 8.57384e-06
29 *2067:CLK *673:34 6.05913e-05
30 *2067:D *1690:D 8.64421e-05
31 *2067:D *673:34 4.89295e-05
32 *2113:RESET_B *673:10 0.000136877
33 *540:44 *673:10 5.51158e-05
34 *540:79 *673:10 6.44789e-05
*RES
1 *2265:X *673:10 9.765 
2 *673:10 *1702:A2 7.845 
3 *673:10 *673:21 2.145 
4 *673:21 *1689:B 3.6 
5 *673:21 *673:34 7.445 
6 *673:34 *1704:B 1.6 
7 *673:34 *1690:D 16.25 
*END

*D_NET *674 0.00367768
*CONN
*I *1657:D I *D sky130_fd_sc_hd__nand4_2
*I *1680:A I *D sky130_fd_sc_hd__nand2_2
*I *1682:A2 I *D sky130_fd_sc_hd__a21oi_2
*I *2265:A I *D sky130_fd_sc_hd__clkbuf_2
*I *2393:X O *D sky130_fd_sc_hd__clkbuf_2
*CAP
1 *1657:D 0
2 *1680:A 0.000497003
3 *1682:A2 0
4 *2265:A 0.000123408
5 *2393:X 0.000233196
6 *674:36 0.000639389
7 *674:25 0.000239437
8 *674:12 0.000453655
9 *1680:A *1673:A_N 4.77757e-05
10 *1680:A *1964:A 0.000553826
11 *1680:A *696:61 0
12 *1680:A *757:39 0.000296192
13 *1680:A *771:20 1.91597e-05
14 *1680:A *771:44 2.68016e-05
15 *2265:A *696:61 0
16 *674:12 *755:19 0
17 *1657:C *674:36 0
18 *1673:B *1680:A 2.59265e-05
19 *1680:B *1680:A 3.21081e-06
20 *1681:A2 *1680:A 2.61115e-05
21 *1682:A1 *674:36 0.000263667
22 *1682:B1 *674:36 0.000122797
23 *1683:B *674:36 2.93678e-05
24 *2075:D *1680:A 0
25 *365:12 *674:12 0
26 *372:14 *1680:A 5.3673e-05
27 *385:10 *1680:A 8.73389e-06
28 *540:40 *2265:A 0
29 *540:44 *2265:A 1.43521e-05
*RES
1 *2393:X *674:12 9.065 
2 *674:12 *2265:A 7.745 
3 *674:12 *674:25 1.485 
4 *674:25 *1682:A2 1.6 
5 *674:25 *674:36 3.675 
6 *674:36 *1680:A 19.935 
7 *674:36 *1657:D 1.6 
*END

*D_NET *675 0.00663288
*CONN
*I *2294:A I *D sky130_fd_sc_hd__clkdlybuf4s25_1
*I *1881:A I *D sky130_fd_sc_hd__or2_2
*I *1772:Y O *D sky130_fd_sc_hd__inv_2
*CAP
1 *2294:A 0.000606395
2 *1881:A 0.00058312
3 *1772:Y 0.000419221
4 *675:16 0.00160874
5 *1881:A *1873:B 0.000542546
6 *1881:A *679:48 9.29392e-05
7 *1881:A *697:39 1.79483e-05
8 *2294:A *677:27 0
9 *2294:A *679:10 0.000324431
10 *2294:A *679:23 0.000330801
11 *2294:A *679:48 0.000419837
12 *675:16 *677:31 0
13 *675:16 *679:48 9.72573e-06
14 *1609:A *1881:A 0.000162325
15 *1772:A *675:16 2.49909e-05
16 *1848:B *2294:A 8.3178e-05
17 *1853:B *2294:A 0.000134242
18 *1855:A1 *2294:A 0.000244093
19 *1881:B *1881:A 0.000418372
20 *1885:A2 *1881:A 4.24621e-05
21 *1887:C1 *1881:A 6.01269e-05
22 *2020:D *2294:A 0.000114364
23 *2063:CLK *675:16 1.19928e-05
24 *2089:RESET_B *1881:A 9.37731e-05
25 *2240:A *1881:A 6.97868e-05
26 *325:10 *1881:A 9.70956e-05
27 *413:41 *1881:A 0
28 *413:41 *2294:A 0
29 *454:14 *2294:A 0
30 *483:61 *675:16 1.88904e-05
31 *492:43 *1881:A 0
32 *492:43 *675:16 7.96104e-06
33 *496:22 *1881:A 1.83756e-05
34 *504:19 *1881:A 1.5933e-05
35 *666:10 *1881:A 5.92191e-05
*RES
1 *1772:Y *675:16 6.47663 
2 *675:16 *1881:A 19.7775 
3 *675:16 *2294:A 19.3875 
*END

*D_NET *676 0.0034471
*CONN
*I *1809:A I *D sky130_fd_sc_hd__nor3_2
*I *1816:A I *D sky130_fd_sc_hd__nor3_2
*I *2266:X O *D sky130_fd_sc_hd__clkbuf_2
*CAP
1 *1809:A 0.000509747
2 *1816:A 0.000293628
3 *2266:X 0.000150915
4 *676:10 0.00095429
5 *1809:A *751:8 7.28465e-06
6 *1809:A *751:14 6.24855e-05
7 *1809:A *752:16 0
8 *1809:A *753:32 0
9 *676:10 *1825:A 3.64998e-06
10 *676:10 *1825:B 0
11 *676:10 *685:41 0
12 *1659:D *1809:A 0.000162325
13 *1809:C *1809:A 0.000194302
14 *1811:B *1809:A 2.85623e-05
15 *1813:B *1809:A 7.33283e-05
16 *1816:C *1816:A 7.35813e-05
17 *1836:B *1809:A 0.000521592
18 *1836:B *676:10 3.25831e-05
19 *365:20 *1816:A 0.000240725
20 *366:10 *676:10 0
21 *366:23 *1809:A 0
22 *366:23 *676:10 0
23 *367:12 *676:10 4.7043e-05
24 *459:10 *1809:A 9.10613e-05
*RES
1 *2266:X *676:10 6.195 
2 *676:10 *1816:A 8.895 
3 *676:10 *1809:A 15.57 
*END

*D_NET *677 0.00697754
*CONN
*I *1952:A I *D sky130_fd_sc_hd__inv_2
*I *1862:A I *D sky130_fd_sc_hd__nor2_2
*I *1860:A I *D sky130_fd_sc_hd__nor3_2
*I *1856:B1 I *D sky130_fd_sc_hd__a21oi_2
*I *2254:A I *D sky130_fd_sc_hd__buf_4
*I *2155:X O *D sky130_fd_sc_hd__clkdlybuf4s25_1
*CAP
1 *1952:A 0.000199057
2 *1862:A 0
3 *1860:A 0.000142236
4 *1856:B1 0.000109576
5 *2254:A 2.43388e-05
6 *2155:X 0.000147934
7 *677:50 0.000825011
8 *677:31 0.00169079
9 *677:27 0.00133108
10 *677:10 0.000405856
11 *1860:A *1867:A 3.00381e-05
12 *1952:A *1707:A 6.63219e-06
13 *1952:A *705:12 1.79483e-05
14 *2254:A *678:16 2.69217e-05
15 *677:10 *738:10 0.000151604
16 *677:10 *738:29 7.27704e-06
17 *677:27 *705:16 0
18 *677:27 *738:29 6.7327e-05
19 *677:50 *1867:A 9.23697e-05
20 *1855:B1 *677:10 7.5589e-05
21 *1856:A2 *1856:B1 0
22 *1857:B1 *1856:B1 0.000104457
23 *1857:B1 *677:50 0.000316159
24 *1861:A *1860:A 2.26364e-05
25 *1863:A1 *677:50 0.000250093
26 *1863:B1 *1860:A 4.36369e-05
27 *1863:B1 *677:31 0
28 *1866:C *677:50 7.06865e-05
29 *2020:D *677:10 0.000158337
30 *2020:D *677:27 0.000215605
31 *2024:D *1860:A 0.000115614
32 *2063:CLK *677:50 2.54431e-05
33 *2294:A *677:27 0
34 *454:14 *677:27 6.03407e-05
35 *536:8 *1856:B1 0
36 *536:8 *677:50 0
37 *659:14 *1856:B1 1.22676e-05
38 *667:12 *677:50 7.17811e-05
39 *668:31 *1860:A 4.98818e-05
40 *668:31 *677:50 2.86975e-05
41 *668:44 *677:50 8.03234e-05
42 *675:16 *677:31 0
*RES
1 *2155:X *677:10 7.32 
2 *677:10 *2254:A 4.05 
3 *677:10 *677:27 4.23877 
4 *677:27 *677:31 1.79073 
5 *677:31 *1856:B1 5.6175 
6 *677:31 *677:50 13.8725 
7 *677:50 *1860:A 8.735 
8 *677:50 *1862:A 1.6 
9 *677:27 *1952:A 4.69097 
*END

*D_NET *678 0.00844249
*CONN
*I *1851:A I *D sky130_fd_sc_hd__nor3_2
*I *1854:A I *D sky130_fd_sc_hd__nor2_2
*I *1953:A I *D sky130_fd_sc_hd__inv_2
*I *1946:A I *D sky130_fd_sc_hd__inv_2
*I *1847:B1 I *D sky130_fd_sc_hd__a31o_2
*I *1844:B1 I *D sky130_fd_sc_hd__a21oi_2
*I *2254:X O *D sky130_fd_sc_hd__buf_4
*CAP
1 *1851:A 0
2 *1854:A 0.000686616
3 *1953:A 2.3116e-05
4 *1946:A 0.000174966
5 *1847:B1 0.000697062
6 *1844:B1 3.68056e-05
7 *2254:X 0.00075636
8 *678:28 0.000910719
9 *678:22 0.000440275
10 *678:20 0.000181535
11 *678:18 0.000871949
12 *678:16 0.000871731
13 *678:16 *1706:A_N 1.79174e-05
14 *678:16 *1708:A_N 0.000194299
15 pcRegister[4] *1854:A 4.89295e-05
16 *1845:B1 *1844:B1 2.05571e-05
17 *1845:B1 *678:28 4.57718e-06
18 *1846:A1 *1847:B1 8.06286e-05
19 *1846:B1 *1847:B1 0.00100395
20 *1848:A *1953:A 2.69217e-05
21 *1848:B *1847:B1 0
22 *1852:B *1854:A 0.000122797
23 *1855:A1 *678:16 0.000101283
24 *1855:A2 *1946:A 0.000342792
25 *1855:B1 *1854:A 0.000254152
26 *2017:D *678:28 0
27 *2019:D *1854:A 4.78698e-06
28 *2064:CLK *1854:A 4.90291e-05
29 *2064:RESET_B *678:18 5.51127e-05
30 *2064:RESET_B *678:20 3.72007e-05
31 *2065:CLK *678:16 7.11365e-05
32 *2065:D *678:16 8.73421e-05
33 *2254:A *678:16 2.69217e-05
34 *536:10 *678:16 2.09074e-05
35 *536:12 *678:16 7.27704e-06
36 *536:12 *678:18 6.45114e-05
37 *536:20 *678:18 1.56261e-05
38 *536:20 *678:20 4.51189e-05
39 *536:20 *678:22 3.98029e-05
40 *659:14 *678:16 0
41 *659:32 *1844:B1 0
42 *659:32 *678:28 0
43 *663:8 *1854:A 4.77757e-05
*RES
1 *2254:X *678:16 14.715 
2 *678:16 *678:18 2.655 
3 *678:18 *678:20 1.635 
4 *678:20 *678:22 1.635 
5 *678:22 *678:28 2.445 
6 *678:28 *1844:B1 4.215 
7 *678:28 *1847:B1 17.65 
8 *678:22 *1946:A 7.275 
9 *678:20 *1953:A 4.05 
10 *678:18 *1854:A 14.445 
11 *678:16 *1851:A 3.6 
*END

*D_NET *679 0.0154662
*CONN
*I *1886:A I *D sky130_fd_sc_hd__nor2_2
*I *1888:A I *D sky130_fd_sc_hd__nor2_2
*I *1878:A I *D sky130_fd_sc_hd__nor3_2
*I *1872:A I *D sky130_fd_sc_hd__nor3_2
*I *1867:A I *D sky130_fd_sc_hd__nor3_2
*I *1954:A I *D sky130_fd_sc_hd__inv_2
*I *2155:A I *D sky130_fd_sc_hd__clkdlybuf4s25_1
*I *2156:X O *D sky130_fd_sc_hd__clkdlybuf4s25_1
*CAP
1 *1886:A 0
2 *1888:A 0.000762653
3 *1878:A 0
4 *1872:A 0.000149239
5 *1867:A 0.000456634
6 *1954:A 0
7 *2155:A 5.49438e-05
8 *2156:X 0.000347201
9 *679:112 0.00125728
10 *679:89 0.000814544
11 *679:79 0.000374805
12 *679:48 0.0014631
13 *679:23 0.000925702
14 *679:10 0.000525512
15 *1888:A *702:10 0
16 *1888:A *702:12 0
17 *2155:A *738:10 0.000119873
18 *679:89 *2296:A 0.000219376
19 *679:89 *697:14 0.000102309
20 *679:112 *686:27 0.000553825
21 *679:112 *697:14 0.000202266
22 pcRegister[12] *679:112 6.16226e-06
23 pcRegister[8] *1872:A 0.000387329
24 *1710:A2 *679:23 8.53113e-06
25 *1710:A2 *679:48 0.000125714
26 *1713:A2 *679:48 0.000155928
27 *1855:A2 *679:10 9.75063e-05
28 *1855:B1 *2155:A 6.62684e-05
29 *1860:A *1867:A 3.00381e-05
30 *1860:B *1867:A 2.85837e-05
31 *1860:C *1867:A 1.33205e-05
32 *1863:A1 *1867:A 8.65961e-05
33 *1863:A1 *679:48 0.000278573
34 *1863:B1 *1867:A 0
35 *1865:D *1867:A 3.59882e-05
36 *1865:D *679:79 1.07797e-05
37 *1867:B *1867:A 6.43323e-05
38 *1867:C *1867:A 0.0003505
39 *1872:B *1872:A 1.87367e-05
40 *1872:C *1872:A 2.20405e-05
41 *1875:A2 *679:112 0
42 *1875:B1 *679:112 0
43 *1876:A2 *1888:A 6.12493e-05
44 *1876:B1 *1888:A 0.000124989
45 *1878:B *1888:A 0.000312785
46 *1881:A *679:48 9.29392e-05
47 *1886:B *679:79 5.83121e-06
48 *1888:B *1888:A 5.14739e-05
49 *1891:A *1888:A 7.35813e-05
50 *1899:A1 *1888:A 0
51 *2022:CLK *1867:A 0.000152802
52 *2025:D *1888:A 6.90876e-05
53 *2063:CLK *679:48 0.000449095
54 *2063:D *679:48 2.49909e-05
55 *2065:D *679:23 0
56 *2065:RESET_B *679:23 0.000158593
57 *2193:A *1888:A 0.000122331
58 *2267:A *1888:A 2.05056e-05
59 *2267:A *679:112 0.000251033
60 *2292:A *679:79 9.30717e-05
61 *2292:A *679:89 0.000315331
62 *2294:A *679:10 0.000324431
63 *2294:A *679:23 0.000330801
64 *2294:A *679:48 0.000419837
65 *402:10 *679:48 7.071e-05
66 *482:34 *679:79 0.00028733
67 *492:87 *1888:A 0
68 *495:26 *1872:A 0.000310375
69 *495:26 *679:89 4.99e-05
70 *509:10 *1888:A 3.00381e-05
71 *561:16 *1888:A 0.000387896
72 *577:10 *679:112 0.000142852
73 *666:10 *679:48 0.000151406
74 *666:16 *679:23 2.15594e-05
75 *668:44 *1867:A 0.000158072
76 *668:44 *679:79 0.00018305
77 *675:16 *679:48 9.72573e-06
78 *677:50 *1867:A 9.23697e-05
*RES
1 *2156:X *679:10 9.705 
2 *679:10 *2155:A 5.1 
3 *679:10 *679:23 3.93 
4 *679:23 *1954:A 3.6 
5 *679:23 *679:48 19.13 
6 *679:48 *1867:A 16.01 
7 *679:48 *679:79 8.83 
8 *679:79 *679:89 8.83 
9 *679:89 *1872:A 6.55 
10 *679:89 *679:112 16.21 
11 *679:112 *1878:A 1.6 
12 *679:112 *1888:A 21.86 
13 *679:79 *1886:A 1.6 
*END

*D_NET *680 0.00465002
*CONN
*I *2255:A I *D sky130_fd_sc_hd__buf_4
*I *2156:A I *D sky130_fd_sc_hd__clkdlybuf4s25_1
*I *1976:A I *D sky130_fd_sc_hd__inv_2
*I *1947:A I *D sky130_fd_sc_hd__inv_2
*I *2157:X O *D sky130_fd_sc_hd__clkdlybuf4s25_1
*CAP
1 *2255:A 0.000258784
2 *2156:A 0.00107118
3 *1976:A 0
4 *1947:A 5.47611e-05
5 *2157:X 0.000330244
6 *680:14 0.000172164
7 *680:10 0.00126004
8 *2156:A *731:12 4.65865e-05
9 *2255:A *2157:A 8.34904e-06
10 *680:10 *731:12 2.14363e-05
11 *680:14 *731:12 2.74491e-05
12 *1725:C *2255:A 6.12027e-05
13 *1727:A1 *680:10 2.69217e-05
14 *1727:A2 *2255:A 0.000231815
15 *1848:A *2156:A 0.000128365
16 *1855:A2 *2156:A 6.92161e-05
17 *2020:D *2156:A 4.65188e-05
18 *2057:D *2156:A 2.2428e-05
19 *2058:RESET_B *2156:A 0.000376129
20 *2087:SET_B *680:14 0.00015942
21 *2099:CLK *2255:A 4.31979e-05
22 *2100:D *2255:A 0.000136809
23 *411:16 *680:10 3.54721e-05
24 *411:16 *680:14 4.9536e-05
25 *544:77 *2156:A 1.19928e-05
*RES
1 *2157:X *680:10 4.92 
2 *680:10 *680:14 4.91 
3 *680:14 *1947:A 2.395 
4 *680:14 *1976:A 1.6 
5 *680:10 *2156:A 17.985 
6 *2157:X *2255:A 11.7 
*END

*D_NET *681 0.0116053
*CONN
*I *1974:A I *D sky130_fd_sc_hd__inv_2
*I *1975:A I *D sky130_fd_sc_hd__inv_2
*I *1978:A I *D sky130_fd_sc_hd__inv_2
*I *1973:A I *D sky130_fd_sc_hd__inv_2
*I *1933:A I *D sky130_fd_sc_hd__inv_2
*I *1977:A I *D sky130_fd_sc_hd__inv_2
*I *1950:A I *D sky130_fd_sc_hd__inv_2
*I *2255:X O *D sky130_fd_sc_hd__buf_4
*CAP
1 *1974:A 0.00012841
2 *1975:A 1.1518e-05
3 *1978:A 0.00128332
4 *1973:A 0.000474591
5 *1933:A 3.37833e-05
6 *1977:A 3.44213e-05
7 *1950:A 0.000173253
8 *2255:X 0.000371329
9 *681:76 0.00129484
10 *681:50 0.000898796
11 *681:36 0.000849369
12 *681:32 0.00109305
13 *681:19 0.000629392
14 *681:8 0.00063386
15 *1973:A *1616:A 0
16 *1974:A *1949:A 0
17 *1974:A *736:10 8.41015e-06
18 *1977:A *1758:A1 8.65905e-05
19 *1978:A *2230:A 0.000107716
20 *1978:A *735:10 1.08129e-05
21 *1978:A *735:52 0
22 *681:8 *728:10 0
23 *681:8 *728:27 0
24 *681:19 *728:27 0
25 *681:32 *728:27 4.18603e-06
26 *681:32 *736:10 5.73236e-05
27 *681:50 *1788:A1 0.000112457
28 *681:50 *735:63 0
29 *1628:C *1973:A 9.71043e-05
30 *1769:B1 *681:32 0
31 *1775:A1 *1973:A 9.12671e-06
32 *1775:A1 *681:50 7.32813e-06
33 *1775:B1 *1933:A 8.64421e-05
34 *1775:B1 *1973:A 1.14169e-05
35 *1776:B *1933:A 4.40028e-05
36 *1781:A_N *681:36 0.000209708
37 *1781:A_N *681:50 1.19179e-05
38 *1788:A2 *681:32 0
39 *1857:A1 *1978:A 4.66108e-05
40 *1857:A2 *1978:A 8.23457e-05
41 *1886:B *1978:A 4.47209e-05
42 *2030:D *1978:A 1.61831e-05
43 *2060:D *1973:A 0
44 *2061:RESET_B *681:8 0
45 *2084:RESET_B *1973:A 0.000269959
46 *2085:RESET_B *1974:A 0.000104521
47 *2085:RESET_B *681:32 8.41957e-05
48 *2086:CLK *1978:A 7.64501e-05
49 *2086:RESET_B *1978:A 6.60888e-05
50 *2088:D *1950:A 1.56428e-05
51 *2088:D *681:8 0
52 *2088:RESET_B *681:8 9.19502e-05
53 *2089:RESET_B *1978:A 0.000135391
54 *2091:RESET_B *1978:A 0.000154895
55 *2141:A *1978:A 5.32578e-05
56 *325:10 *1978:A 7.35813e-05
57 *340:30 *1973:A 0.000109744
58 *446:12 *681:36 2.58618e-05
59 *446:12 *681:50 2.20023e-05
60 *449:12 *681:8 0
61 *449:12 *681:19 0
62 *449:12 *681:32 0
63 *471:12 *681:8 0.00040124
64 *535:33 *681:36 0.0003485
65 *535:33 *681:50 2.0851e-06
66 *550:10 *1974:A 0
67 *550:12 *681:32 0
68 *551:24 *1973:A 0.000346165
69 *555:55 *1933:A 9.09732e-05
70 *555:55 *1973:A 2.93707e-05
71 *555:55 *681:50 5.12969e-06
72 *555:80 *1973:A 1.54665e-05
73 *555:80 *1978:A 0
74 *555:80 *681:50 0
75 *579:12 *681:8 8.53113e-06
76 *579:12 *681:19 0.000109995
*RES
1 *2255:X *681:8 11.865 
2 *681:8 *1950:A 6.12 
3 *681:8 *681:19 1.89 
4 *681:19 *1977:A 4.395 
5 *681:19 *681:32 8.9325 
6 *681:32 *681:36 1.7616 
7 *681:36 *681:50 6.24203 
8 *681:50 *1933:A 3.085 
9 *681:50 *1973:A 16.535 
10 *681:36 *681:76 0.5 
11 *681:76 *1978:A 23.7375 
12 *681:76 *1975:A 3.8325 
13 *681:32 *1974:A 6.1275 
*END

*D_NET *682 0.0060121
*CONN
*I *1994:A I *D sky130_fd_sc_hd__inv_2
*I *1906:B1 I *D sky130_fd_sc_hd__a21oi_2
*I *1897:A I *D sky130_fd_sc_hd__nor3_2
*I *2256:A I *D sky130_fd_sc_hd__buf_2
*I *1893:B1 I *D sky130_fd_sc_hd__a31o_2
*I *1892:A I *D sky130_fd_sc_hd__nor3_2
*I *2158:X O *D sky130_fd_sc_hd__clkdlybuf4s25_1
*CAP
1 *1994:A 0
2 *1906:B1 0.000546401
3 *1897:A 0
4 *2256:A 0.000157934
5 *1893:B1 0
6 *1892:A 0.000121779
7 *2158:X 0.000144987
8 *682:44 0.000275551
9 *682:42 0.00116108
10 *682:34 0.000734583
11 *682:21 0.000374614
12 *682:8 0.000403861
13 *1892:A *2158:A 4.82863e-05
14 *2256:A *683:10 1.08758e-05
15 *1828:B *682:34 0
16 *1890:B *1892:A 1.23331e-05
17 *1892:B *1892:A 0
18 *1893:A3 *1892:A 0.00011069
19 *1893:A3 *682:21 0.000268285
20 *1893:A3 *682:34 9.50342e-06
21 *1895:A1 *682:44 9.14613e-05
22 *1895:A2 *682:42 6.0627e-05
23 *1895:B1 *1906:B1 6.1197e-05
24 *1895:B1 *682:44 5.13924e-05
25 *1896:A *682:21 0
26 *1896:A *682:34 0
27 *1896:D *682:8 1.4683e-05
28 *1897:B *2256:A 4.18603e-06
29 *1897:B *682:44 5.98004e-06
30 *1906:A1 *1906:B1 2.49909e-05
31 *1906:A2 *1906:B1 0.000122331
32 *1907:A1 *1906:B1 0
33 *1907:B1 *1906:B1 7.37496e-05
34 *2032:CLK *682:8 6.42013e-05
35 *2032:D *1892:A 9.14049e-05
36 *2033:D *682:21 0
37 *2034:CLK *682:42 1.08758e-05
38 *2034:D *2256:A 5.4003e-05
39 *2034:D *682:42 4.42232e-05
40 *2034:D *682:44 0.000202425
41 *2038:D *1906:B1 0.000516598
42 *2195:A *682:34 0
43 *512:38 *2256:A 0
44 *535:351 *1906:B1 0
45 *548:12 *682:34 0
46 *562:8 *2256:A 3.64998e-06
47 *562:40 *2256:A 5.65627e-05
48 *563:12 *682:34 0
49 *671:8 *1892:A 7.23533e-05
50 *672:10 *1892:A 4.43871e-06
*RES
1 *2158:X *682:8 5.43 
2 *682:8 *1892:A 6.705 
3 *682:8 *682:21 3.165 
4 *682:21 *1893:B1 3.6 
5 *682:21 *682:34 5.795 
6 *682:34 *682:42 8.69 
7 *682:42 *682:44 2.91 
8 *682:44 *2256:A 6.285 
9 *682:44 *1897:A 3.6 
10 *682:42 *1906:B1 15.225 
11 *682:34 *1994:A 1.6 
*END

*D_NET *683 0.00589415
*CONN
*I *1912:A I *D sky130_fd_sc_hd__nor2_2
*I *1910:A I *D sky130_fd_sc_hd__nor3_2
*I *1904:A I *D sky130_fd_sc_hd__nor2_2
*I *1902:A I *D sky130_fd_sc_hd__nor3_2
*I *1898:B1 I *D sky130_fd_sc_hd__a21oi_2
*I *2256:X O *D sky130_fd_sc_hd__buf_2
*CAP
1 *1912:A 7.02731e-05
2 *1910:A 0.000269097
3 *1904:A 0
4 *1902:A 0.000283867
5 *1898:B1 0.00027678
6 *2256:X 0.00018782
7 *683:57 0.000464151
8 *683:46 0.000394591
9 *683:25 0.00074335
10 *683:10 0.000654272
11 pcRegister[22] *1910:A 4.89295e-05
12 *1899:A2 *1898:B1 4.43871e-06
13 *1902:C *1902:A 6.95473e-06
14 *1905:A2 *683:46 0
15 *1911:A *1910:A 4.90962e-05
16 *1911:B *1910:A 1.43774e-05
17 *1911:B *1912:A 0.000222123
18 *1911:C *683:57 5.16348e-05
19 *2034:CLK *683:46 7.53779e-06
20 *2035:D *1898:B1 0
21 *2036:CLK *1902:A 0.000268753
22 *2039:D *1910:A 9.53743e-05
23 *2199:A *1902:A 0.000116158
24 *2256:A *683:10 1.08758e-05
25 *2271:A *1902:A 2.20732e-05
26 *2271:A *683:25 5.13899e-05
27 *2274:A *1910:A 0.000122801
28 *512:14 *1898:B1 0.00010412
29 *512:38 *1898:B1 0
30 *512:38 *683:46 0
31 *512:51 *683:46 0
32 *516:18 *683:46 5.31158e-06
33 *516:18 *683:57 0.000165961
34 *546:10 *683:46 9.09788e-06
35 *546:10 *683:57 0.000169465
36 *546:12 *683:46 0.000116709
37 *546:14 *683:46 0.000129378
38 *546:16 *683:46 1.42807e-05
39 *546:79 *683:57 0.000179068
40 *564:12 *1898:B1 0
41 *564:48 *1902:A 9.21064e-05
42 *564:48 *683:10 0.000237249
43 *591:14 *1912:A 0.00023468
*RES
1 *2256:X *683:10 7.17 
2 *683:10 *1898:B1 8.295 
3 *683:10 *683:25 4.61 
4 *683:25 *1902:A 10.19 
5 *683:25 *683:46 7.25 
6 *683:46 *1904:A 3.6 
7 *683:46 *683:57 6.185 
8 *683:57 *1910:A 6.67 
9 *683:57 *1912:A 4.12 
*END

*D_NET *684 0.00471768
*CONN
*I *1992:A I *D sky130_fd_sc_hd__inv_2
*I *2007:A I *D sky130_fd_sc_hd__inv_2
*I *2257:A I *D sky130_fd_sc_hd__clkbuf_4
*I *1932:A I *D sky130_fd_sc_hd__inv_2
*I *2159:X O *D sky130_fd_sc_hd__clkdlybuf4s25_1
*CAP
1 *1992:A 2.85527e-05
2 *2007:A 0.000155395
3 *2257:A 0
4 *1932:A 0.000467709
5 *2159:X 0.000516127
6 *684:40 0.000348307
7 *684:12 0.000467709
8 *684:10 0.000680486
9 *1932:A *685:6 0.000342174
10 *1932:A *685:10 0.000382357
11 *2007:A *2160:A 0
12 *2007:A *2188:A 0.000104681
13 *684:10 *1623:A1 1.56428e-05
14 *684:10 *2159:A 0.000261939
15 *684:10 *688:27 1.1561e-05
16 *684:40 *688:27 0.000162022
17 *1631:B *1932:A 0.000236729
18 *1631:B *684:10 0
19 *1631:C *684:10 0
20 *1826:B1 *684:10 0
21 *1826:B1 *684:40 0
22 *2103:RESET_B *1992:A 2.16917e-05
23 *2103:RESET_B *684:40 5.83121e-06
24 *2104:D *684:10 0.000151624
25 *2118:RESET_B *2007:A 4.77807e-05
26 *341:31 *684:10 3.60256e-05
27 *345:12 *1932:A 0.000158385
28 *466:8 *1992:A 3.45679e-05
29 *466:8 *684:40 8.03844e-05
*RES
1 *2159:X *684:10 12.525 
2 *684:10 *684:12 2 
3 *684:12 *1932:A 15.905 
4 *684:12 *2257:A 1.6 
5 *684:10 *684:40 5.72 
6 *684:40 *2007:A 8.795 
7 *684:40 *1992:A 2.395 
*END

*D_NET *685 0.0105328
*CONN
*I *2006:A I *D sky130_fd_sc_hd__inv_2
*I *1996:A I *D sky130_fd_sc_hd__inv_2
*I *1619:A I *D sky130_fd_sc_hd__inv_2
*I *1997:A I *D sky130_fd_sc_hd__inv_2
*I *1995:A I *D sky130_fd_sc_hd__inv_2
*I *2008:A I *D sky130_fd_sc_hd__inv_2
*I *2009:A I *D sky130_fd_sc_hd__inv_2
*I *2257:X O *D sky130_fd_sc_hd__clkbuf_4
*CAP
1 *2006:A 0.000286147
2 *1996:A 0
3 *1619:A 0.000420756
4 *1997:A 7.81148e-05
5 *1995:A 0
6 *2008:A 0
7 *2009:A 0.000131762
8 *2257:X 9.0993e-05
9 *685:51 0.00116119
10 *685:41 0.00105043
11 *685:28 0.000481045
12 *685:26 0.000691354
13 *685:10 0.000278516
14 *685:6 0.000550024
15 *1619:A *688:68 3.18735e-05
16 *1997:A *688:60 4.66108e-05
17 *685:6 *1631:A 5.83121e-06
18 *685:10 *1631:A 2.49909e-05
19 *685:26 *1631:A 5.23362e-05
20 *685:41 *1825:B 0
21 *685:51 *1651:D 8.65539e-05
22 *685:51 *688:60 0.0003175
23 *685:51 *688:68 3.09233e-05
24 *685:51 *740:44 1.19928e-05
25 *1631:C *685:6 0.000106412
26 *1631:C *685:10 1.41095e-05
27 *1631:C *685:26 0
28 *1804:B *685:51 0.000465127
29 *1824:A *685:26 0.000115482
30 *1824:B *685:26 0.000473374
31 *1825:C *685:26 0
32 *1825:C *685:28 0
33 *1825:C *685:41 0
34 *1826:A2 *685:26 0.000226147
35 *1913:B1 *685:51 1.73877e-05
36 *1917:A1 *1997:A 0
37 *1917:A2 *685:51 0
38 *1921:B *1619:A 8.32086e-05
39 *1929:A *1619:A 4.77807e-05
40 *1930:A1 *1619:A 0.000646862
41 *1932:A *685:6 0.000342174
42 *1932:A *685:10 0.000382357
43 *2040:D *685:51 7.4027e-05
44 *2107:RESET_B *685:51 1.41165e-05
45 *2108:D *1619:A 0
46 *2108:RESET_B *1619:A 9.30717e-05
47 *2114:CLK *2006:A 4.99619e-05
48 *2114:CLK *685:28 8.73147e-06
49 *2114:RESET_B *685:28 0.000207523
50 *2114:RESET_B *685:41 3.25831e-05
51 *2117:RESET_B *2006:A 2.49909e-05
52 *2118:D *685:26 0.000140905
53 *2119:RESET_B *2009:A 9.47017e-05
54 *2250:A *1619:A 8.53011e-05
55 *345:12 *685:10 0.000160314
56 *468:14 *685:26 0.000219647
57 *468:14 *685:28 0.000123218
58 *468:14 *685:41 5.3673e-05
59 *527:17 *1619:A 0.000114937
60 *535:290 *2006:A 0.000126992
61 *549:40 *1619:A 3.57924e-05
62 *549:40 *685:51 1.07797e-05
63 *549:55 *1619:A 0.000112126
64 *670:70 *1619:A 0
65 *676:10 *685:41 0
*RES
1 *2257:X *685:6 4.81 
2 *685:6 *685:10 4.26 
3 *685:10 *2009:A 4.12 
4 *685:10 *2008:A 1.6 
5 *685:6 *685:26 11.795 
6 *685:26 *685:28 2.91 
7 *685:28 *1995:A 3.6 
8 *685:28 *685:41 8.36 
9 *685:41 *685:51 13.31 
10 *685:51 *1997:A 4.755 
11 *685:51 *1619:A 14.91 
12 *685:41 *1996:A 1.6 
13 *685:26 *2006:A 7.98 
*END

*D_NET *686 0.00719766
*CONN
*I *2295:A I *D sky130_fd_sc_hd__clkdlybuf4s25_1
*I *1870:A1 I *D sky130_fd_sc_hd__a21oi_2
*I *1873:C I *D sky130_fd_sc_hd__and3_2
*I *1871:B I *D sky130_fd_sc_hd__and3_2
*I *2180:A I *D sky130_fd_sc_hd__dlygate4sd3_1
*I *2025:Q O *D sky130_fd_sc_hd__dfxtp_2
*CAP
1 *2295:A 0
2 *1870:A1 3.60089e-05
3 *1873:C 0.000136247
4 *1871:B 0.000239184
5 *2180:A 1.99109e-05
6 *2025:Q 0.000409182
7 *686:50 0.000222427
8 *686:37 0.000742371
9 *686:27 0.000748433
10 *686:12 0.00072451
11 *1873:C *1873:A 3.10667e-05
12 *686:27 *1873:A 5.14252e-05
13 *686:27 *697:14 0.000112589
14 *686:37 *2299:A 0.000347482
15 *1609:A *1871:B 0.000122331
16 *1870:A2 *1870:A1 4.77769e-05
17 *1874:A *686:12 0.000181067
18 *1875:A1 *2180:A 3.64998e-06
19 *1875:A1 *686:27 6.24581e-05
20 *1875:B1 *686:27 0
21 *1880:A *686:37 8.53011e-05
22 *1880:D *686:37 4.66108e-05
23 *2027:D *686:12 0.000171937
24 *2030:D *1871:B 0.000409734
25 *2030:D *686:37 4.66108e-05
26 *2267:A *2180:A 4.77719e-05
27 *2267:A *686:27 0.000381468
28 *492:43 *1871:B 0.000115177
29 *492:60 *1870:A1 7.63391e-05
30 *492:60 *1871:B 0.000315482
31 *492:60 *1873:C 4.66108e-05
32 *492:60 *686:50 9.10613e-05
33 *492:71 *1870:A1 2.69443e-06
34 *492:87 *686:27 0.000111316
35 *501:14 *686:37 0.000360184
36 *504:19 *1870:A1 1.0397e-05
37 *543:37 *686:12 0
38 *577:10 *686:27 8.70195e-05
39 *679:112 *686:27 0.000553825
*RES
1 *2025:Q *686:12 11.885 
2 *686:12 *2180:A 2.05 
3 *686:12 *686:27 13.78 
4 *686:27 *686:37 12.155 
5 *686:37 *1871:B 9.945 
6 *686:37 *686:50 1.125 
7 *686:50 *1873:C 5.085 
8 *686:50 *1870:A1 4.665 
9 *686:27 *2295:A 1.6 
*END

*D_NET *687 0.0119539
*CONN
*I *2003:A I *D sky130_fd_sc_hd__inv_2
*I *1999:A I *D sky130_fd_sc_hd__inv_2
*I *2010:A I *D sky130_fd_sc_hd__inv_2
*I *2011:A I *D sky130_fd_sc_hd__inv_2
*I *1998:A I *D sky130_fd_sc_hd__inv_2
*I *2160:X O *D sky130_fd_sc_hd__clkdlybuf4s25_1
*CAP
1 *2003:A 0
2 *1999:A 0.000140816
3 *2010:A 0.000231163
4 *2011:A 0.00167388
5 *1998:A 4.63542e-05
6 *2160:X 0.000584091
7 *687:70 0.000552518
8 *687:47 0.00196413
9 *687:36 0.000848338
10 *687:18 0.00127636
11 *1998:A *2121:D 0.000235339
12 *2011:A *1914:B1 0
13 *2011:A *688:68 0
14 *687:18 *1825:A 5.05066e-06
15 *687:36 *1649:C 0.00014483
16 *687:36 *2219:A 6.05715e-05
17 *687:36 *747:25 0
18 *687:36 *748:21 3.90659e-05
19 *687:47 *2121:D 0
20 *687:47 *750:12 0.000137709
21 *687:70 *2121:D 0
22 red[2] *2011:A 0
23 *1803:B1 *687:36 0.000135667
24 *1804:A *687:36 0.000113697
25 *1806:A *687:36 0.00015635
26 *1806:A *687:47 0.000126569
27 *1811:B *2010:A 7.55131e-05
28 *1919:A2 *2011:A 1.36009e-05
29 *1925:A2 *2011:A 0.000726556
30 *1925:A2 *687:70 6.16226e-06
31 *1925:B1 *2011:A 7.32097e-05
32 *1928:B *1999:A 0
33 *1931:C *2011:A 0.000839953
34 *2044:D *2011:A 2.98644e-05
35 *2107:RESET_B *687:36 0.000158391
36 *2109:RESET_B *1998:A 0.000197826
37 *2110:D *687:70 0.000156474
38 *2110:RESET_B *1999:A 0
39 *2114:CLK *687:36 0.000161467
40 *2121:SET_B *2010:A 0.000288005
41 *2122:CLK *1999:A 0
42 *169:18 *2011:A 0
43 *360:21 *687:36 0.000165365
44 *360:21 *687:47 4.85687e-05
45 *361:12 *2010:A 0.000279733
46 *366:10 *687:18 1.00941e-05
47 *468:14 *687:18 1.7635e-05
48 *535:290 *687:36 0.000135009
49 *549:68 *1999:A 1.15196e-05
50 *549:86 *687:36 8.64421e-05
*RES
1 *2160:X *687:18 8.03527 
2 *687:18 *687:36 18.185 
3 *687:36 *1998:A 5.775 
4 *687:36 *687:47 3.0375 
5 *687:47 *2011:A 9.08077 
6 *687:47 *687:70 3.2925 
7 *687:70 *2010:A 10.635 
8 *687:70 *1999:A 5.745 
9 *687:18 *2003:A 1.6 
*END

*D_NET *688 0.0179898
*CONN
*I *2160:A I *D sky130_fd_sc_hd__clkdlybuf4s25_1
*I *1917:B1 I *D sky130_fd_sc_hd__a31o_2
*I *1927:B1 I *D sky130_fd_sc_hd__a31o_2
*I *1923:B1 I *D sky130_fd_sc_hd__a31o_2
*I *1914:B1 I *D sky130_fd_sc_hd__a21oi_2
*I *2158:A I *D sky130_fd_sc_hd__clkdlybuf4s25_1
*I *2159:A I *D sky130_fd_sc_hd__clkdlybuf4s25_1
*I *2161:X O *D sky130_fd_sc_hd__clkdlybuf4s25_1
*CAP
1 *2160:A 0.000623746
2 *1917:B1 0
3 *1927:B1 0.000198225
4 *1923:B1 0.000187232
5 *1914:B1 0.000230291
6 *2158:A 0.000894809
7 *2159:A 0.000195762
8 *2161:X 0
9 *688:87 0.000720974
10 *688:68 0.000936972
11 *688:60 0.000965442
12 *688:27 0.00243006
13 *688:8 0.00117048
14 *688:4 0.000657492
15 *688:27 *2251:A 3.00381e-05
16 *688:60 *1803:A1 6.98643e-05
17 *688:60 *1803:A2 1.94753e-05
18 *688:60 *740:25 0.00021767
19 *688:60 *740:44 0.000376867
20 red[2] *1914:B1 0.000334281
21 red[4] *688:68 0
22 *1619:A *688:68 3.18735e-05
23 *1818:A *2160:A 7.77199e-05
24 *1821:C *2160:A 0.000211465
25 *1826:A1 *688:27 8.23457e-05
26 *1826:B1 *688:27 8.65961e-05
27 *1827:B *688:27 0.000119756
28 *1828:B *2158:A 4.80285e-05
29 *1828:B *688:27 4.70477e-05
30 *1829:B *688:27 0.000505834
31 *1830:B *688:60 0.000416825
32 *1892:A *2158:A 4.82863e-05
33 *1916:A2 *1923:B1 3.18321e-05
34 *1917:A2 *688:68 1.95323e-05
35 *1918:B *1914:B1 0.000593641
36 *1918:B *688:68 0.000312337
37 *1921:B *688:87 0
38 *1924:A1 *1923:B1 5.13252e-05
39 *1924:A1 *688:87 0
40 *1924:A2 *1923:B1 1.92979e-05
41 *1926:A *1923:B1 0.000123308
42 *1926:A *1927:B1 4.66108e-05
43 *1929:D *1923:B1 4.44436e-05
44 *1929:D *1927:B1 5.72039e-05
45 *1930:A3 *1927:B1 0
46 *1997:A *688:60 4.66108e-05
47 *2007:A *2160:A 0
48 *2011:A *1914:B1 0
49 *2011:A *688:68 0
50 *2032:CLK *2158:A 0.000101317
51 *2032:D *2158:A 4.99619e-05
52 *2038:D *1914:B1 6.11912e-05
53 *2040:D *688:60 3.47757e-05
54 *2044:D *1923:B1 0.000103705
55 *2103:RESET_B *2159:A 4.19797e-05
56 *2103:RESET_B *2160:A 0
57 *2103:RESET_B *688:27 5.72091e-05
58 *2119:D *688:60 0.000204795
59 *2120:D *688:60 0.000160266
60 *2120:RESET_B *2158:A 0
61 *2120:RESET_B *688:60 0
62 *2190:A *2160:A 0.000306457
63 *2250:A *688:87 0.00019342
64 *2263:A *2158:A 0.000160635
65 *2268:A *2158:A 0.000272978
66 *2285:A *688:87 0.000103243
67 *169:18 *1914:B1 3.20321e-05
68 *335:10 *2159:A 0
69 *335:23 *2159:A 0
70 *337:12 *2159:A 0.000240371
71 *464:16 *2160:A 3.39981e-05
72 *466:8 *688:27 0.000108663
73 *468:14 *688:27 2.67222e-05
74 *509:21 *2158:A 0
75 *527:23 *688:87 0.000315956
76 *528:20 *1923:B1 1.92979e-05
77 *531:19 *1927:B1 4.63995e-05
78 *535:290 *2160:A 2.75145e-05
79 *539:35 *2160:A 6.31891e-05
80 *547:39 *1914:B1 2.8531e-05
81 *547:52 *1914:B1 4.10092e-05
82 *548:12 *2158:A 7.63204e-05
83 *548:12 *688:60 0
84 *549:12 *688:60 0.000432205
85 *549:40 *688:60 0.000527981
86 *561:16 *2158:A 3.47837e-05
87 *561:61 *2158:A 1.73877e-05
88 *670:70 *688:87 0
89 *684:10 *2159:A 0.000261939
90 *684:10 *688:27 1.1561e-05
91 *684:40 *688:27 0.000162022
92 *685:51 *688:60 0.0003175
93 *685:51 *688:68 3.09233e-05
*RES
1 *2161:X *688:4 1.6 
2 *688:4 *688:8 2.45 
3 *688:8 *2159:A 9.825 
4 *688:8 *688:27 17.57 
5 *688:27 *2158:A 24.105 
6 *688:27 *688:60 24.025 
7 *688:60 *688:68 4.09623 
8 *688:68 *1914:B1 5.7545 
9 *688:68 *688:87 9.6175 
10 *688:87 *1923:B1 9.575 
11 *688:87 *1927:B1 5.08 
12 *688:60 *1917:B1 1.6 
13 *688:4 *2160:A 18.53 
*END

*D_NET *689 0.00344592
*CONN
*I *2258:A I *D sky130_fd_sc_hd__buf_4
*I *1937:A I *D sky130_fd_sc_hd__inv_2
*I *1989:A I *D sky130_fd_sc_hd__inv_2
*I *1988:A I *D sky130_fd_sc_hd__inv_2
*I *1936:A I *D sky130_fd_sc_hd__inv_2
*I *2162:X O *D sky130_fd_sc_hd__clkdlybuf4s25_1
*CAP
1 *2258:A 0.000101455
2 *1937:A 2.93286e-05
3 *1989:A 0.000123052
4 *1988:A 0.000119906
5 *1936:A 0
6 *2162:X 0.000219259
7 *689:44 0.000276671
8 *689:17 0.000765842
9 *689:6 0.000596255
10 *689:17 *2231:A 8.74126e-05
11 *689:17 *730:6 6.52347e-05
12 *689:44 *2162:A 2.01737e-05
13 *1724:A1 *689:17 0.000165089
14 *1739:B *2258:A 3.75882e-06
15 *1752:A2 *689:17 2.90167e-05
16 *1754:B2 *689:17 7.17015e-05
17 *2048:RESET_B *2258:A 7.34042e-05
18 *2048:RESET_B *689:44 8.52972e-05
19 *2099:RESET_B *1988:A 9.37846e-05
20 *2100:RESET_B *1989:A 3.75882e-06
21 *434:12 *689:17 0.000141312
22 *557:14 *1937:A 1.9291e-05
23 *557:14 *2258:A 4.38721e-06
24 *557:14 *689:6 4.77757e-05
25 *557:14 *689:44 7.40635e-05
26 *557:22 *689:6 0.000160319
27 *557:22 *689:17 6.83734e-05
*RES
1 *2162:X *689:6 3.43 
2 *689:6 *1936:A 1.6 
3 *689:6 *689:17 12.125 
4 *689:17 *1988:A 5.745 
5 *689:17 *1989:A 5.745 
6 *2162:X *689:44 6.465 
7 *689:44 *1937:A 4.215 
8 *689:44 *2258:A 5.49 
*END

*D_NET *690 0.00940997
*CONN
*I *1938:A I *D sky130_fd_sc_hd__inv_2
*I *1948:A I *D sky130_fd_sc_hd__inv_2
*I *1941:A I *D sky130_fd_sc_hd__inv_2
*I *1939:A I *D sky130_fd_sc_hd__inv_2
*I *1940:A I *D sky130_fd_sc_hd__inv_2
*I *1942:A I *D sky130_fd_sc_hd__inv_2
*I *2258:X O *D sky130_fd_sc_hd__buf_4
*CAP
1 *1938:A 0.000301754
2 *1948:A 0
3 *1941:A 0.000192946
4 *1939:A 0.000128063
5 *1940:A 3.58421e-05
6 *1942:A 0.000366313
7 *2258:X 6.71097e-05
8 *690:75 0.000553675
9 *690:54 0.00109405
10 *690:20 0.000596261
11 *690:18 0.00123347
12 *690:8 0.000802975
13 *1942:A *1750:A 0.000421068
14 *1942:A *714:12 9.08126e-05
15 *1942:A *714:36 8.30853e-06
16 *690:75 *1949:A 0.000118173
17 *690:75 *1979:A 4.77719e-05
18 *690:75 *694:77 4.66108e-05
19 *1739:B *1938:A 2.21074e-05
20 *1740:B1 *1938:A 6.18661e-05
21 *1756:A *690:54 0.000411486
22 *1756:B *690:18 0.000232949
23 *1756:B *690:20 0.00012438
24 *1757:A0 *690:20 3.66977e-05
25 *1766:A1 *690:54 0.000173317
26 *1767:A2 *690:18 0.000313259
27 *1797:C1 *1938:A 0.000156778
28 *1797:C1 *690:8 6.72833e-06
29 *1797:C1 *690:18 0.000163212
30 *2050:D *690:54 0.000169827
31 *2050:D *690:75 0.000169659
32 *2050:RESET_B *690:75 0
33 *2053:RESET_B *1942:A 1.16578e-05
34 *2090:RESET_B *690:75 9.47017e-05
35 *426:67 *690:54 0.000330735
36 *427:32 *690:54 5.28079e-05
37 *433:12 *1942:A 8.40213e-05
38 *535:154 *690:75 0
39 *551:12 *1941:A 4.66108e-05
40 *551:18 *1941:A 0.000157394
41 *551:69 *1941:A 0.000310423
42 *551:69 *690:75 0.000174145
*RES
1 *2258:X *690:8 2.92 
2 *690:8 *690:18 12.265 
3 *690:18 *690:20 2.52 
4 *690:20 *1942:A 12.365 
5 *690:20 *1940:A 2.215 
6 *690:18 *690:54 15.965 
7 *690:54 *1939:A 5.43 
8 *690:54 *690:75 10.22 
9 *690:75 *1941:A 6.19 
10 *690:75 *1948:A 1.6 
11 *690:8 *1938:A 5.77 
*END

*D_NET *691 0.00517719
*CONN
*I *1935:A I *D sky130_fd_sc_hd__inv_2
*I *1972:A I *D sky130_fd_sc_hd__inv_2
*I *1981:A I *D sky130_fd_sc_hd__inv_2
*I *2259:A I *D sky130_fd_sc_hd__clkbuf_4
*I *2163:X O *D sky130_fd_sc_hd__clkdlybuf4s25_1
*CAP
1 *1935:A 0.000561731
2 *1972:A 3.15437e-05
3 *1981:A 5.30651e-05
4 *2259:A 0.000191973
5 *2163:X 0
6 *691:36 0.00120644
7 *691:21 0.000768357
8 *691:6 0.000294098
9 *1935:A *2178:A 0
10 *1981:A *701:24 1.26985e-05
11 *2259:A *692:14 2.68464e-05
12 *691:36 *1636:A 0
13 *691:36 *2163:A 0
14 *691:36 *701:24 6.07575e-06
15 *691:36 *701:57 0.000472961
16 *691:36 *701:74 0.000517454
17 *691:36 *720:12 0.000139245
18 mem_addr[10] *691:36 0
19 mem_addr[11] *691:36 0
20 mem_addr[12] *691:36 5.82679e-05
21 mem_addr[14] *691:36 0
22 mem_addr[17] *691:36 0
23 mem_addr[18] *691:36 9.26907e-06
24 mem_addr[1] *2259:A 2.39856e-05
25 mem_addr[20] *1935:A 8.32311e-06
26 mem_addr[25] *1935:A 4.1977e-05
27 mem_addr[27] *1935:A 0
28 mem_addr[28] *1935:A 9.26907e-06
29 mem_addr[29] *1935:A 0
30 mem_addr[30] *1935:A 4.18603e-06
31 mem_addr[3] *2259:A 4.38326e-05
32 mem_addr[4] *2259:A 1.92979e-05
33 mem_addr[8] *691:36 1.52491e-05
34 *1641:B1 *1935:A 0.000115582
35 *1643:A1 *1935:A 0
36 *2083:RESET_B *1935:A 0.00015897
37 *2083:RESET_B *1972:A 4.7072e-06
38 *2168:A *2259:A 0.000198352
39 *2168:A *691:21 0.000135139
40 *2168:A *691:36 4.82919e-05
*RES
1 *2163:X *691:6 3.6 
2 *691:6 *2259:A 7.485 
3 *691:6 *691:21 3.89 
4 *691:21 *1981:A 2.41 
5 *691:21 *691:36 16.67 
6 *691:36 *1972:A 4.05 
7 *691:36 *1935:A 14.16 
*END

*D_NET *692 0.0133269
*CONN
*I *1951:A I *D sky130_fd_sc_hd__inv_2
*I *1945:A I *D sky130_fd_sc_hd__inv_2
*I *1944:A I *D sky130_fd_sc_hd__inv_2
*I *1983:A I *D sky130_fd_sc_hd__inv_2
*I *1982:A I *D sky130_fd_sc_hd__inv_2
*I *1943:A I *D sky130_fd_sc_hd__inv_2
*I *1985:A I *D sky130_fd_sc_hd__inv_2
*I *2259:X O *D sky130_fd_sc_hd__clkbuf_4
*CAP
1 *1951:A 0.000654028
2 *1945:A 0.000125398
3 *1944:A 0.000671677
4 *1983:A 0
5 *1982:A 0
6 *1943:A 0
7 *1985:A 0.000241585
8 *2259:X 0.00072471
9 *692:78 0.00134105
10 *692:59 0.0008537
11 *692:46 0.000385986
12 *692:42 0.00103597
13 *692:31 0.00068459
14 *692:14 0.00134521
15 *1944:A *1633:A 0.00011352
16 *1944:A *1633:B 1.20662e-05
17 *1944:A *1965:A 4.99619e-05
18 *1944:A *1986:A 0.00019549
19 *1944:A *694:67 9.34309e-05
20 *1944:A *698:27 4.75402e-05
21 *1944:A *718:10 0.000307828
22 *1945:A *2174:A 8.41384e-05
23 *1985:A *1714:A_N 0
24 *692:14 *2216:A 0.000158564
25 *692:31 *2162:A 9.30292e-05
26 *692:78 *1734:B 0.000353702
27 display_enable *1985:A 0
28 mem_addr[1] *692:14 8.52845e-05
29 mem_addr[3] *692:14 4.89295e-05
30 *1718:B1 *1951:A 2.75145e-05
31 *1735:B1 *692:78 1.91597e-05
32 *1736:A2 *1944:A 0.000142832
33 *1737:B *692:59 8.65905e-05
34 *1740:A1 *692:14 0.000121043
35 *1740:A2 *692:14 2.15454e-05
36 *1791:B1 *692:59 0
37 *1793:B *692:59 4.91189e-05
38 *1793:B *692:78 2.24336e-05
39 *1795:A2 *1985:A 0.000184318
40 *1795:B1_N *692:31 4.90185e-05
41 *1842:B1 *1944:A 0.000186486
42 *1843:A1 *692:78 5.19006e-06
43 *2049:RESET_B *692:42 0
44 *2050:CLK *1945:A 0.000308641
45 *2050:CLK *692:78 1.07593e-05
46 *2054:D *692:42 9.37846e-05
47 *2054:RESET_B *692:14 2.50751e-05
48 *2055:RESET_B *1944:A 0
49 *2056:D *692:78 7.03276e-05
50 *2056:RESET_B *1945:A 0.000171559
51 *2056:RESET_B *692:78 4.77807e-05
52 *2062:D *1951:A 4.66108e-05
53 *2062:RESET_B *1951:A 5.83121e-06
54 *2083:CLK *1945:A 0.000260249
55 *2092:CLK *1951:A 0.000178555
56 *2093:RESET_B *1951:A 9.60582e-07
57 *2093:RESET_B *692:46 3.81908e-06
58 *2093:RESET_B *692:59 7.00889e-06
59 *2094:D *692:78 0.000118513
60 *2096:CLK *692:31 7.50642e-05
61 *2096:CLK *692:42 8.52233e-05
62 *2096:D *1985:A 0
63 *2259:A *692:14 2.68464e-05
64 *13:12 *1944:A 0
65 *13:12 *692:59 5.70202e-05
66 *13:12 *692:78 0.000317805
67 *328:8 *1944:A 9.54399e-05
68 *421:10 *692:42 0
69 *426:22 *692:78 6.02191e-05
70 *537:28 *692:42 0.000101858
71 *552:29 *692:59 0.000208484
72 *552:62 *692:59 0
73 *553:34 *692:42 0
74 *553:34 *692:59 6.52906e-05
75 *556:12 *692:78 8.23457e-05
76 *556:20 *692:78 5.92191e-05
77 *571:6 *692:78 0.000119982
*RES
1 *2259:X *692:14 15.81 
2 *692:14 *1985:A 8.55 
3 *692:14 *692:31 9.535 
4 *692:31 *1943:A 3.6 
5 *692:31 *692:42 7.46 
6 *692:42 *692:46 1.065 
7 *692:46 *1982:A 1.6 
8 *692:46 *692:59 8.81 
9 *692:59 *1983:A 3.6 
10 *692:59 *692:78 15.74 
11 *692:78 *1944:A 21.23 
12 *692:78 *1945:A 6.88 
13 *692:42 *1951:A 10.015 
*END

*D_NET *693 0.00207921
*CONN
*I *2163:A I *D sky130_fd_sc_hd__clkdlybuf4s25_1
*I *2260:A I *D sky130_fd_sc_hd__clkbuf_4
*I *2164:X O *D sky130_fd_sc_hd__clkdlybuf4s25_1
*CAP
1 *2163:A 0.000390081
2 *2260:A 0.000282511
3 *2164:X 0
4 *693:4 0.000672593
5 mem_addr[10] *2163:A 0.000103273
6 mem_addr[10] *2260:A 0.000129085
7 mem_addr[5] *2163:A 0
8 mem_addr[8] *2163:A 4.05872e-05
9 mem_addr[9] *2163:A 0.000461079
10 *2168:A *2163:A 0
11 *691:36 *2163:A 0
*RES
1 *2164:X *693:4 1.6 
2 *693:4 *2260:A 5.17 
3 *693:4 *2163:A 13.805 
*END

*D_NET *694 0.0166367
*CONN
*I *1986:A I *D sky130_fd_sc_hd__inv_2
*I *1971:A I *D sky130_fd_sc_hd__inv_2
*I *1949:A I *D sky130_fd_sc_hd__inv_2
*I *1979:A I *D sky130_fd_sc_hd__inv_2
*I *1984:A I *D sky130_fd_sc_hd__inv_2
*I *1987:A I *D sky130_fd_sc_hd__inv_2
*I *2162:A I *D sky130_fd_sc_hd__clkdlybuf4s25_1
*I *2260:X O *D sky130_fd_sc_hd__clkbuf_4
*CAP
1 *1986:A 0.000498958
2 *1971:A 0
3 *1949:A 0.000931847
4 *1979:A 1.02931e-05
5 *1984:A 5.66458e-05
6 *1987:A 1.86282e-05
7 *2162:A 0.0015211
8 *2260:X 0.000183836
9 *694:77 0.00129933
10 *694:67 0.000856897
11 *694:53 0.00176419
12 *694:38 0.000970449
13 *694:27 0.000420873
14 *694:8 0.00195889
15 *1949:A *1783:B2 8.33066e-06
16 *1949:A *731:124 0
17 *1986:A *1633:B 0.000398699
18 *1986:A *698:27 8.65961e-05
19 *1987:A *719:66 0.0001249
20 *2162:A *1714:A_N 1.10435e-05
21 *2162:A *1715:C 0.000126488
22 *2162:A *1738:A 0.000350325
23 *2162:A *1742:A_N 6.0236e-05
24 *2162:A *2213:A 2.0187e-05
25 *2162:A *706:12 5.33859e-05
26 *2162:A *706:34 0.000164454
27 *2162:A *717:21 6.23576e-05
28 *694:8 *1742:A_N 0.000123225
29 *694:27 *1742:A_N 1.0183e-05
30 *694:38 *701:74 3.05295e-05
31 *694:53 *1639:A 5.20193e-05
32 *694:53 *701:74 0.000309167
33 *694:67 *1612:A 7.01132e-05
34 mem_addr[10] *694:8 4.71626e-05
35 *1718:A1 *2162:A 0
36 *1718:A2 *2162:A 0
37 *1736:A1 *694:67 7.87474e-05
38 *1736:A2 *694:67 9.47869e-05
39 *1736:A3 *694:67 0.000119756
40 *1736:B1 *1986:A 6.02165e-05
41 *1743:A1 *1987:A 0.0001249
42 *1743:A1 *694:27 0
43 *1792:A *694:8 8.35106e-05
44 *1792:B *2162:A 0
45 *1792:B *694:8 8.65961e-05
46 *1794:B1 *2162:A 0
47 *1795:A1 *2162:A 9.83473e-05
48 *1795:B1_N *2162:A 0.000124388
49 *1944:A *1986:A 0.00019549
50 *1944:A *694:67 9.34309e-05
51 *1974:A *1949:A 0
52 *2048:RESET_B *2162:A 1.19028e-05
53 *2050:D *1949:A 0.000134756
54 *2062:RESET_B *2162:A 5.2089e-05
55 *2092:D *694:8 8.49205e-05
56 *2096:D *2162:A 0.000122821
57 *2097:RESET_B *1986:A 0.000164686
58 *2098:D *694:27 3.89528e-05
59 *2098:RESET_B *694:27 0
60 *2126:A *694:53 1.99272e-05
61 *2150:A *1949:A 0.000229649
62 *328:8 *1986:A 3.50033e-05
63 *350:10 *694:53 5.76956e-05
64 *351:10 *694:53 6.26426e-05
65 *407:12 *2162:A 0
66 *407:25 *2162:A 0
67 *427:32 *1949:A 0.000440566
68 *446:12 *1949:A 5.78499e-05
69 *538:8 *694:53 0.000158564
70 *538:65 *1986:A 0
71 *538:76 *1986:A 0
72 *550:10 *1949:A 0.000494337
73 *551:69 *1979:A 4.77719e-05
74 *551:69 *694:77 0.00027405
75 *551:78 *694:77 9.09788e-06
76 *556:88 *2162:A 0
77 *556:88 *694:27 0
78 *556:88 *694:38 0
79 *556:106 *694:38 0
80 *556:106 *694:53 0
81 *565:10 *1986:A 5.21636e-05
82 *689:44 *2162:A 2.01737e-05
83 *690:75 *1949:A 0.000118173
84 *690:75 *1979:A 4.77719e-05
85 *690:75 *694:77 4.66108e-05
86 *692:31 *2162:A 9.30292e-05
*RES
1 *2260:X *694:8 7.155 
2 *694:8 *2162:A 31.275 
3 *694:8 *694:27 4.44 
4 *694:27 *1987:A 4.74 
5 *694:27 *694:38 2.4 
6 *694:38 *1984:A 4.395 
7 *694:38 *694:53 16.175 
8 *694:53 *694:67 12.175 
9 *694:67 *694:77 10.405 
10 *694:77 *1979:A 2.05 
11 *694:77 *1949:A 29.5498 
12 *694:67 *1971:A 1.6 
13 *694:53 *1986:A 17.69 
*END

*D_NET *695 0.0047063
*CONN
*I *2261:A I *D sky130_fd_sc_hd__buf_4
*I *1966:A I *D sky130_fd_sc_hd__inv_2
*I *1991:A I *D sky130_fd_sc_hd__inv_2
*I *1990:A I *D sky130_fd_sc_hd__inv_2
*I *1993:A I *D sky130_fd_sc_hd__inv_2
*I *2165:X O *D sky130_fd_sc_hd__clkdlybuf4s25_1
*CAP
1 *2261:A 0.00022861
2 *1966:A 0
3 *1991:A 0
4 *1990:A 0
5 *1993:A 0.000227987
6 *2165:X 0.000677612
7 *695:30 0.00054529
8 *695:20 0.000391274
9 *695:18 0.000522974
10 *1993:A *2161:A 0.000553894
11 *2261:A *2165:A 2.11084e-05
12 *2261:A *696:20 0.00026091
13 *695:18 *696:20 2.75229e-05
14 *695:30 *2161:A 0.000302188
15 *1671:B *695:18 0
16 *2076:RESET_B *2261:A 1.64056e-05
17 *2077:D *695:18 0
18 *2078:CLK *695:18 8.52845e-05
19 *2078:CLK *695:20 0.000200565
20 *2078:CLK *695:30 0.000197826
21 *2078:D *695:18 0.000173661
22 *374:6 *695:18 4.82919e-05
23 *374:19 *2261:A 9.27255e-06
24 *539:10 *695:30 0.000206123
25 *539:18 *695:30 9.50342e-06
*RES
1 *2165:X *695:18 13.97 
2 *695:18 *695:20 1.83 
3 *695:20 *695:30 11.095 
4 *695:30 *1993:A 6.88 
5 *695:30 *1990:A 1.6 
6 *695:20 *1991:A 1.6 
7 *695:18 *1966:A 1.6 
8 *2165:X *2261:A 10.68 
*END

*D_NET *696 0.0107468
*CONN
*I *2005:A I *D sky130_fd_sc_hd__inv_2
*I *1964:A I *D sky130_fd_sc_hd__inv_2
*I *1956:A I *D sky130_fd_sc_hd__inv_2
*I *1955:A I *D sky130_fd_sc_hd__inv_2
*I *1963:A I *D sky130_fd_sc_hd__inv_2
*I *2004:A I *D sky130_fd_sc_hd__inv_2
*I *2261:X O *D sky130_fd_sc_hd__buf_4
*CAP
1 *2005:A 0
2 *1964:A 0.000426754
3 *1956:A 0.000206733
4 *1955:A 0
5 *1963:A 0
6 *2004:A 3.826e-05
7 *2261:X 0.000617709
8 *696:80 0.000704507
9 *696:61 0.000845466
10 *696:53 0.00110271
11 *696:38 0.00090818
12 *696:20 0.00115936
13 *1956:A *2241:A 0.000122821
14 *1964:A *1673:A_N 8.61608e-05
15 *1964:A *771:20 0.000196566
16 *696:20 *1663:A 1.91597e-05
17 *696:20 *2165:A 8.49205e-05
18 *696:20 *2201:A 9.28568e-05
19 *696:38 *2189:A 0.000151761
20 *696:53 *1654:A 0
21 *696:53 *1654:B 0
22 *696:61 *1661:A 0
23 *696:61 *1673:A_N 3.05373e-05
24 *696:61 *773:18 7.72994e-05
25 *696:80 *1661:A 2.85364e-05
26 *1661:B *696:80 3.00381e-05
27 *1663:B *696:20 0.000160319
28 *1674:B *1964:A 5.93823e-06
29 *1680:A *1964:A 0.000553826
30 *1680:A *696:61 0
31 *1683:B *696:61 0.000323188
32 *1684:C *696:80 2.05056e-05
33 *1702:B1 *696:80 0
34 *1703:A *1956:A 0.000186415
35 *1703:A *696:80 8.52883e-05
36 *1703:B *696:80 0.000178837
37 *1705:C *696:80 0
38 *1822:B1 *696:38 4.08655e-05
39 *2066:RESET_B *696:80 9.05535e-05
40 *2067:RESET_B *1956:A 7.3862e-05
41 *2074:D *696:61 0.000120186
42 *2074:RESET_B *696:61 7.63051e-05
43 *2074:RESET_B *696:80 1.35324e-05
44 *2075:D *1964:A 1.73847e-05
45 *2075:RESET_B *1964:A 2.11178e-05
46 *2076:RESET_B *696:20 2.03459e-05
47 *2115:D *696:38 0.000156911
48 *2115:RESET_B *696:38 0.000176305
49 *2116:RESET_B *696:38 4.77807e-05
50 *2142:A *696:53 0.00011964
51 *2143:A *696:53 4.82863e-05
52 *2261:A *696:20 0.00026091
53 *2265:A *696:61 0
54 *371:6 *696:61 8.60799e-05
55 *371:6 *696:80 0.00023701
56 *372:12 *696:80 1.87038e-05
57 *372:14 *696:61 0
58 *373:12 *1964:A 2.03987e-05
59 *374:6 *696:20 0.000133361
60 *374:19 *696:20 1.83847e-05
61 *385:10 *1964:A 5.83121e-06
62 *387:10 *696:80 0
63 *535:233 *696:38 0.000105031
64 *535:285 *2004:A 4.45445e-05
65 *540:21 *696:53 0
66 *540:21 *696:61 2.92496e-05
67 *540:40 *696:61 0.000292066
68 *540:44 *696:61 0
69 *540:79 *696:61 0
70 *695:18 *696:20 2.75229e-05
*RES
1 *2261:X *696:20 17.165 
2 *696:20 *696:38 15.945 
3 *696:38 *2004:A 4.305 
4 *696:38 *696:53 7.7 
5 *696:53 *696:61 13.315 
6 *696:61 *1963:A 1.6 
7 *696:61 *696:80 13.84 
8 *696:80 *1955:A 1.6 
9 *696:80 *1956:A 6.19 
10 *696:53 *1964:A 15.38 
11 *696:20 *2005:A 1.6 
*END

*D_NET *697 0.00764075
*CONN
*I *2210:A I *D sky130_fd_sc_hd__dlygate4sd3_1
*I *1873:B I *D sky130_fd_sc_hd__and3_2
*I *1871:A I *D sky130_fd_sc_hd__and3_2
*I *2296:A I *D sky130_fd_sc_hd__clkdlybuf4s25_1
*I *2026:Q O *D sky130_fd_sc_hd__dfxtp_2
*CAP
1 *2210:A 0.000125667
2 *1873:B 0.000163686
3 *1871:A 3.85044e-05
4 *2296:A 0.000518345
5 *2026:Q 4.48113e-05
6 *697:39 0.00130127
7 *697:14 0.00188056
8 *697:6 0.000433616
9 *2210:A *1873:A 2.21074e-05
10 *1609:A *1871:A 3.64998e-06
11 *1861:A *2296:A 2.61042e-05
12 *1864:B *2296:A 0
13 *1865:D *2296:A 0.000139245
14 *1869:A1 *2210:A 8.64599e-05
15 *1880:A *697:14 1.48206e-05
16 *1880:B *697:39 0
17 *1881:A *1873:B 0.000542546
18 *1881:A *697:39 1.79483e-05
19 *1885:A2 *1873:B 0.000410855
20 *2022:CLK *2296:A 0.000139245
21 *2024:D *2296:A 5.41997e-06
22 *2292:A *2296:A 6.63413e-05
23 *2292:A *697:14 2.3379e-05
24 *488:10 *2296:A 0
25 *492:43 *1873:B 7.23943e-06
26 *492:43 *697:39 6.63219e-06
27 *492:60 *1873:B 3.81604e-05
28 *543:66 *2296:A 0.000373804
29 *543:66 *697:14 3.29528e-05
30 *668:12 *2296:A 9.64069e-05
31 *668:31 *2296:A 0.000197632
32 *668:44 *2296:A 0.000246799
33 *679:89 *2296:A 0.000219376
34 *679:89 *697:14 0.000102309
35 *679:112 *697:14 0.000202266
36 *686:27 *697:14 0.000112589
*RES
1 *2026:Q *697:6 2.05 
2 *697:6 *697:14 7.8875 
3 *697:14 *2296:A 18.9025 
4 *697:14 *697:39 3.0185 
5 *697:39 *1871:A 4.05 
6 *697:39 *1873:B 10.08 
7 *697:6 *2210:A 4.045 
*END

*D_NET *698 0.00289893
*CONN
*I *2262:A I *D sky130_fd_sc_hd__buf_4
*I *1934:A I *D sky130_fd_sc_hd__inv_2
*I *1967:A I *D sky130_fd_sc_hd__inv_2
*I *1965:A I *D sky130_fd_sc_hd__inv_2
*I *1968:A I *D sky130_fd_sc_hd__inv_2
*I *2166:X O *D sky130_fd_sc_hd__clkdlybuf4s25_1
*CAP
1 *2262:A 7.45606e-05
2 *1934:A 0
3 *1967:A 0
4 *1965:A 0.000274666
5 *1968:A 0
6 *2166:X 6.61514e-05
7 *698:27 0.000659586
8 *698:16 0.000518756
9 *698:14 0.000275387
10 *698:10 0.000282263
11 *1965:A *2161:A 4.82919e-05
12 *2262:A *2161:A 1.34503e-05
13 *698:10 *1667:A 4.43871e-06
14 *698:10 *2161:A 0
15 *698:10 *699:10 0
16 *698:10 *700:10 2.16389e-05
17 *698:14 *2161:A 0.000145648
18 *698:14 *700:10 0.00012657
19 *698:16 *2161:A 2.75229e-05
20 *1664:C *1965:A 0
21 *1944:A *1965:A 4.99619e-05
22 *1944:A *698:27 4.75402e-05
23 *1986:A *698:27 8.65961e-05
24 *2077:CLK *1965:A 4.82919e-05
25 *2078:D *1965:A 0
26 *2078:RESET_B *1965:A 0.000115954
27 *2078:RESET_B *698:27 1.16578e-05
*RES
1 *2166:X *698:10 6.725 
2 *698:10 *698:14 3.57 
3 *698:14 *698:16 2.175 
4 *698:16 *1968:A 1.6 
5 *698:16 *698:27 6 
6 *698:27 *1965:A 10.685 
7 *698:27 *1967:A 1.6 
8 *698:14 *1934:A 1.6 
9 *698:10 *2262:A 2.755 
*END

*D_NET *699 0.00747072
*CONN
*I *1958:A I *D sky130_fd_sc_hd__inv_2
*I *1957:A I *D sky130_fd_sc_hd__inv_2
*I *1962:A I *D sky130_fd_sc_hd__inv_2
*I *1961:A I *D sky130_fd_sc_hd__inv_2
*I *1969:A I *D sky130_fd_sc_hd__inv_2
*I *1970:A I *D sky130_fd_sc_hd__inv_2
*I *2262:X O *D sky130_fd_sc_hd__buf_4
*CAP
1 *1958:A 0
2 *1957:A 0.000431326
3 *1962:A 0.000254194
4 *1961:A 0.000194768
5 *1969:A 0
6 *1970:A 0.000229509
7 *2262:X 0.0002857
8 *699:58 0.00147149
9 *699:34 0.000448962
10 *699:32 0.00128325
11 *699:23 0.000504228
12 *699:10 0.000776348
13 *1957:A *765:60 8.52972e-05
14 *1970:A *2181:A 0.000197826
15 *699:10 *1667:A 0
16 *699:10 *2181:A 0
17 *699:10 *761:14 1.71013e-05
18 *699:23 *1678:A 0
19 *699:23 *1678:B 2.25299e-05
20 *699:23 *2181:A 0
21 *699:23 *761:14 0.000177287
22 *699:32 *1678:B 3.68942e-05
23 *699:32 *700:46 0
24 *699:32 *768:38 5.10315e-05
25 *699:58 *1688:B 0.000110323
26 *699:58 *1959:A 0
27 *699:58 *2227:A 0
28 *699:58 *700:46 0
29 *699:58 *700:59 0
30 *699:58 *768:38 8.35213e-05
31 *1666:A *1970:A 0.0001249
32 *1692:B *699:58 0.000143266
33 *2069:RESET_B *699:58 5.83121e-06
34 *2070:RESET_B *699:58 0
35 *2071:CLK *699:58 6.28687e-05
36 *2072:RESET_B *699:32 0
37 *2073:D *699:58 0.000358243
38 *2080:RESET_B *699:23 0.000114016
39 *698:10 *699:10 0
*RES
1 *2262:X *699:10 8.235 
2 *699:10 *1970:A 7.86 
3 *699:10 *699:23 5.715 
4 *699:23 *1969:A 3.6 
5 *699:23 *699:32 4.44 
6 *699:32 *699:34 2 
7 *699:34 *1961:A 4.48 
8 *699:34 *1962:A 5.515 
9 *699:32 *699:58 21.725 
10 *699:58 *1957:A 12.59 
11 *699:58 *1958:A 1.6 
*END

*D_NET *700 0.0138972
*CONN
*I *1959:A I *D sky130_fd_sc_hd__inv_2
*I *2000:A I *D sky130_fd_sc_hd__inv_2
*I *2001:A I *D sky130_fd_sc_hd__inv_2
*I *2002:A I *D sky130_fd_sc_hd__inv_2
*I *1960:A I *D sky130_fd_sc_hd__inv_2
*I *2165:A I *D sky130_fd_sc_hd__clkdlybuf4s25_1
*I *2166:A I *D sky130_fd_sc_hd__clkdlybuf4s25_1
*I *2167:X O *D sky130_fd_sc_hd__clkdlybuf4s25_1
*CAP
1 *1959:A 9.6357e-05
2 *2000:A 0
3 *2001:A 0.000250214
4 *2002:A 6.79554e-06
5 *1960:A 0.000226011
6 *2165:A 0.000577823
7 *2166:A 6.85508e-05
8 *2167:X 0.000147186
9 *700:84 0.000515079
10 *700:65 0.00253869
11 *700:59 0.00274353
12 *700:46 0.00120503
13 *700:21 0.00141394
14 *700:10 0.000452975
15 *1959:A *766:14 0
16 *1960:A *1688:B 2.75229e-05
17 *1960:A *2205:A 0.000353598
18 *2001:A *753:56 8.8266e-05
19 *2165:A *758:22 2.42043e-05
20 *2166:A *1667:A 4.35348e-05
21 *700:10 *1667:A 5.23362e-05
22 *700:10 *2161:A 0
23 *700:21 *1667:A 0.000210846
24 *700:21 *761:14 0
25 *700:46 *761:14 0
26 *700:59 *766:14 0
27 *700:84 *1689:A 3.5678e-06
28 *700:84 *753:56 0.000113237
29 *1665:B *2166:A 8.65905e-05
30 *1665:B *700:10 1.52184e-05
31 *1665:B *700:21 0.000114846
32 *1666:A *700:21 0
33 *1668:A *700:21 7.25036e-05
34 *1668:A *700:46 0.000190929
35 *1668:B *700:21 0
36 *1670:B *2165:A 2.75229e-05
37 *1692:B *700:59 0
38 *1694:A *700:59 0
39 *1695:A *1959:A 5.80232e-06
40 *1695:B *1959:A 0
41 *2070:RESET_B *1959:A 9.33998e-05
42 *2071:CLK *700:59 0
43 *2071:D *700:59 4.70343e-05
44 *2072:RESET_B *700:46 9.30661e-05
45 *2080:D *2165:A 5.30673e-05
46 *2111:RESET_B *2001:A 8.06719e-05
47 *2111:RESET_B *700:84 6.72833e-06
48 *2112:RESET_B *2001:A 0.000107608
49 *2261:A *2165:A 2.11084e-05
50 *374:19 *2165:A 0.000387896
51 *376:12 *700:21 7.63125e-05
52 *540:79 *2002:A 9.5799e-06
53 *540:79 *700:84 0.000180012
54 *541:40 *2165:A 0.000421227
55 *541:44 *2165:A 6.52265e-05
56 *542:10 *700:46 0
57 *542:43 *700:46 0
58 *542:43 *700:59 0
59 *673:10 *2002:A 2.05571e-05
60 *673:10 *700:84 0.000164847
61 *673:21 *700:84 0.000163019
62 *696:20 *2165:A 8.49205e-05
63 *698:10 *700:10 2.16389e-05
64 *698:14 *700:10 0.00012657
65 *699:32 *700:46 0
66 *699:58 *1959:A 0
67 *699:58 *700:46 0
68 *699:58 *700:59 0
*RES
1 *2167:X *700:10 6.12 
2 *700:10 *2166:A 5.085 
3 *700:10 *700:21 6.225 
4 *700:21 *2165:A 16.035 
5 *700:21 *700:46 11.115 
6 *700:46 *1960:A 8.205 
7 *700:46 *700:59 6.3525 
8 *700:59 *700:65 4.7088 
9 *700:65 *2002:A 3.8325 
10 *700:65 *700:84 8.7875 
11 *700:84 *2001:A 11.03 
12 *700:84 *2000:A 1.6 
13 *700:59 *1959:A 5.475 
*END

*D_NET *701 0.022272
*CONN
*I *2167:A I *D sky130_fd_sc_hd__clkdlybuf4s25_1
*I *2161:A I *D sky130_fd_sc_hd__clkdlybuf4s25_1
*I *2164:A I *D sky130_fd_sc_hd__clkdlybuf4s25_1
*I *1980:A I *D sky130_fd_sc_hd__inv_2
*I *2157:A I *D sky130_fd_sc_hd__clkdlybuf4s25_1
*I *2168:X O *D sky130_fd_sc_hd__clkdlybuf4s25_1
*CAP
1 *2167:A 4.07852e-05
2 *2161:A 0.00199806
3 *2164:A 0
4 *1980:A 0.000520819
5 *2157:A 0.000268781
6 *2168:X 0.00315004
7 *701:74 0.00339395
8 *701:57 0.00155403
9 *701:24 0.00374071
10 *2161:A *758:14 3.66754e-05
11 *2161:A *760:6 3.1835e-05
12 *2161:A *760:27 9.14601e-05
13 *701:24 *2237:A 0.000283775
14 *701:57 *1636:C 0
15 *701:74 *1636:C 0
16 *701:74 *1639:A 6.42102e-05
17 *701:74 *719:60 6.33424e-05
18 *701:74 *776:21 0.000118752
19 *701:74 *776:23 4.49498e-05
20 *701:74 *776:25 1.94805e-05
21 *1641:A2 *701:74 0
22 *1642:B1 *701:74 8.04668e-05
23 *1644:B1 *701:74 5.21046e-05
24 *1665:B *2161:A 0
25 *1670:B *2161:A 0
26 *1720:B1_N *1980:A 0.000480134
27 *1720:B1_N *2157:A 5.21091e-05
28 *1725:B *2157:A 0.000107098
29 *1725:C *2157:A 0.000125123
30 *1743:A1 *701:57 0
31 *1752:B1 *701:24 0.000205098
32 *1760:B1 *1980:A 0.00012657
33 *1767:A2 *701:24 3.93531e-05
34 *1767:B1 *701:24 0.0002312
35 *1779:A2 *701:74 0
36 *1782:B *1980:A 0.000123225
37 *1792:A *701:57 4.04613e-05
38 *1792:B *701:24 0.000154708
39 *1965:A *2161:A 4.82919e-05
40 *1981:A *701:24 1.26985e-05
41 *1993:A *2161:A 0.000553894
42 *2015:SET_B *701:74 0
43 *2016:D *701:74 0
44 *2049:D *701:24 0.000122797
45 *2077:CLK *2161:A 9.07709e-05
46 *2077:D *2161:A 7.60965e-05
47 *2079:CLK *2161:A 5.05437e-05
48 *2079:D *2161:A 0.000137571
49 *2079:RESET_B *2161:A 0
50 *2083:D *701:74 6.33376e-05
51 *2092:D *701:57 0
52 *2092:RESET_B *701:57 3.35139e-05
53 *2099:CLK *2157:A 8.35157e-05
54 *2100:CLK *701:24 8.53011e-05
55 *2100:D *701:24 1.1392e-05
56 *2168:A *701:24 3.64998e-06
57 *2197:A *701:24 9.00151e-05
58 *2235:A *701:24 4.66108e-05
59 *2255:A *2157:A 8.34904e-06
60 *2262:A *2161:A 1.34503e-05
61 *412:14 *2157:A 4.87939e-05
62 *421:25 *701:24 0.000350738
63 *433:20 *701:24 4.29365e-05
64 *441:8 *1980:A 2.05056e-05
65 *449:12 *1980:A 0.000912346
66 *471:12 *2157:A 0
67 *555:80 *1980:A 0.000123225
68 *555:84 *1980:A 0.000172527
69 *555:86 *1980:A 1.82476e-05
70 *691:36 *701:24 6.07575e-06
71 *691:36 *701:57 0.000472961
72 *691:36 *701:74 0.000517454
73 *694:38 *701:74 3.05295e-05
74 *694:53 *701:74 0.000309167
75 *695:30 *2161:A 0.000302188
76 *698:10 *2161:A 0
77 *698:14 *2161:A 0.000145648
78 *698:16 *2161:A 2.75229e-05
79 *700:10 *2161:A 0
*RES
1 *2168:X *701:24 47.56 
2 *701:24 *2157:A 9.345 
3 *701:24 *1980:A 19.185 
4 *2168:X *701:57 9.06 
5 *701:57 *2164:A 3.6 
6 *701:57 *701:74 31.33 
7 *701:74 *2161:A 42.865 
8 *701:74 *2167:A 4.215 
*END

*D_NET *702 0.00317795
*CONN
*I *2203:A I *D sky130_fd_sc_hd__dlygate4sd3_1
*I *2297:A I *D sky130_fd_sc_hd__clkdlybuf4s25_1
*I *1873:A I *D sky130_fd_sc_hd__and3_2
*I *2027:Q O *D sky130_fd_sc_hd__dfxtp_2
*CAP
1 *2203:A 0
2 *2297:A 0
3 *1873:A 0.000624865
4 *2027:Q 0.000170749
5 *702:12 0.000672408
6 *702:10 0.000218293
7 *1869:A1 *1873:A 0.000405428
8 *1869:A1 *702:12 9.50342e-06
9 *1869:A2 *1873:A 3.35155e-05
10 *1869:B1 *1873:A 0.000196084
11 *1870:A2 *1873:A 0.000160342
12 *1870:B1 *1873:A 9.54411e-05
13 *1873:C *1873:A 3.10667e-05
14 *1888:A *702:10 0
15 *1888:A *702:12 0
16 *2028:CLK *702:10 4.65515e-05
17 *2210:A *1873:A 2.21074e-05
18 *492:87 *1873:A 3.09233e-05
19 *492:87 *702:10 0.000127373
20 *492:87 *702:12 0.000152134
21 *496:54 *702:12 0
22 *577:10 *702:12 0.000129742
23 *686:27 *1873:A 5.14252e-05
*RES
1 *2027:Q *702:10 6.375 
2 *702:10 *702:12 1.89 
3 *702:12 *1873:A 15.99 
4 *702:12 *2297:A 3.6 
5 *702:10 *2203:A 3.6 
*END

*D_NET *703 0.00574854
*CONN
*I *1877:A I *D sky130_fd_sc_hd__and3_2
*I *2200:A I *D sky130_fd_sc_hd__dlygate4sd3_1
*I *2298:A I *D sky130_fd_sc_hd__clkdlybuf4s25_1
*I *1879:B I *D sky130_fd_sc_hd__and2_2
*I *2028:Q O *D sky130_fd_sc_hd__dfxtp_2
*CAP
1 *1877:A 0.000110989
2 *2200:A 0.000152923
3 *2298:A 0.000831266
4 *1879:B 0.000304465
5 *2028:Q 8.72329e-05
6 *703:10 0.00127401
7 *703:8 0.000291205
8 *703:6 0.000198222
9 *1879:B *1879:A 4.4022e-05
10 *1879:B *704:12 0.000137997
11 *703:10 *704:10 6.93295e-05
12 *703:10 *704:12 1.96989e-05
13 *1609:A *1879:B 0.000131393
14 *1875:A1 *2298:A 7.25921e-06
15 *1875:B1 *2298:A 1.33269e-05
16 *1875:C1 *2298:A 0.00010145
17 *1877:B *703:10 0.000243751
18 *1883:B1 *2298:A 0.00031776
19 *1884:B *1879:B 0.000176072
20 *1889:A1 *1877:A 3.26889e-05
21 *1891:A *2200:A 0
22 *1891:C *2200:A 0
23 *2025:D *2200:A 0
24 *2025:D *703:10 0
25 *2027:D *2298:A 3.54866e-05
26 *2030:D *1879:B 7.49042e-05
27 *2267:A *703:10 0
28 *447:18 *1879:B 0.000111011
29 *492:71 *1879:B 0.000135698
30 *492:71 *703:10 0.000111749
31 *492:79 *2298:A 0.000269087
32 *492:87 *2298:A 0.000159741
33 *496:22 *1877:A 2.05056e-05
34 *496:22 *2200:A 5.28859e-05
35 *496:22 *703:10 1.1561e-05
36 *496:24 *1877:A 2.75229e-05
37 *496:24 *703:6 5.17188e-05
38 *499:12 *703:10 0.000141606
*RES
1 *2028:Q *703:6 3.085 
2 *703:6 *703:8 2 
3 *703:8 *703:10 4.44 
4 *703:10 *1879:B 11.1 
5 *703:10 *2298:A 16.86 
6 *703:8 *2200:A 6 
7 *703:6 *1877:A 3.715 
*END

*D_NET *704 0.00432688
*CONN
*I *2208:A I *D sky130_fd_sc_hd__dlygate4sd3_1
*I *2299:A I *D sky130_fd_sc_hd__clkdlybuf4s25_1
*I *1879:A I *D sky130_fd_sc_hd__and2_2
*I *2029:Q O *D sky130_fd_sc_hd__dfxtp_2
*CAP
1 *2208:A 9.95623e-05
2 *2299:A 0.000710754
3 *1879:A 0.000187106
4 *2029:Q 0.000100134
5 *704:12 0.00107027
6 *704:10 0.00037211
7 pcRegister[10] *2299:A 0.000133032
8 *1879:B *1879:A 4.4022e-05
9 *1879:B *704:12 0.000137997
10 *1880:A *2299:A 8.53011e-05
11 *1880:D *2299:A 4.77807e-05
12 *1883:B1 *2208:A 0.000195476
13 *1884:B *1879:A 0.000201771
14 *2029:D *2208:A 8.75256e-05
15 *2267:A *1879:A 2.94467e-05
16 *2267:A *704:10 4.83593e-05
17 *2267:A *704:12 0.000101359
18 *447:18 *1879:A 0.000112685
19 *499:12 *704:10 2.75145e-05
20 *535:106 *1879:A 8.50228e-05
21 *559:16 *1879:A 1.31414e-05
22 *686:37 *2299:A 0.000347482
23 *703:10 *704:10 6.93295e-05
24 *703:10 *704:12 1.96989e-05
*RES
1 *2029:Q *704:10 5.685 
2 *704:10 *704:12 3.675 
3 *704:12 *1879:A 8.04 
4 *704:12 *2299:A 15.555 
5 *704:10 *2208:A 5.88 
*END

*D_NET *705 0.00562055
*CONN
*I *1759:A_N I *D sky130_fd_sc_hd__nand3b_2
*I *2239:A I *D sky130_fd_sc_hd__dlygate4sd3_1
*I *1786:A2 I *D sky130_fd_sc_hd__o21a_2
*I *1606:A I *D sky130_fd_sc_hd__inv_2
*I *1785:A2 I *D sky130_fd_sc_hd__o21a_2
*I *1710:A1 I *D sky130_fd_sc_hd__o21ba_2
*I *1711:A1 I *D sky130_fd_sc_hd__o21ba_2
*I *2063:Q O *D sky130_fd_sc_hd__dfrtp_2
*CAP
1 *1759:A_N 0.000197557
2 *2239:A 0
3 *1786:A2 0
4 *1606:A 0.000288991
5 *1785:A2 8.76157e-05
6 *1710:A1 0
7 *1711:A1 0.000108232
8 *2063:Q 0
9 *705:57 0.000592104
10 *705:22 0.000351477
11 *705:16 0.00042768
12 *705:12 0.000509212
13 *705:10 0.000217354
14 *705:4 0.000305631
15 *1606:A *1786:A1 8.30853e-06
16 *1606:A *733:20 7.01359e-05
17 *1759:A_N *1613:A 7.26348e-05
18 *1759:A_N *1759:C 5.12969e-06
19 *1759:A_N *733:16 0.000275542
20 *1785:A2 *1708:A_N 4.66108e-05
21 *1785:A2 *738:29 8.2126e-05
22 *705:10 *733:16 1.46828e-05
23 *705:12 *1707:A 0
24 *705:16 *1785:B1 1.52184e-05
25 *705:16 *738:29 2.92496e-05
26 *705:22 *738:29 5.06162e-05
27 *705:57 *1707:A 6.97129e-05
28 *705:57 *1786:B1 2.75229e-05
29 *1707:B *1606:A 3.50152e-06
30 *1707:B *705:57 4.27523e-05
31 *1710:A2 *1711:A1 4.82919e-05
32 *1710:A2 *705:22 8.57024e-05
33 *1710:B1_N *1711:A1 5.27651e-05
34 *1787:A *705:22 2.63322e-05
35 *1787:B *705:12 1.72991e-05
36 *1787:B *705:16 5.21046e-05
37 *1787:B *705:22 4.35432e-05
38 *1787:B *705:57 0.000158072
39 *1952:A *705:12 1.79483e-05
40 *2020:D *705:22 0.000104892
41 *2063:RESET_B *705:10 0.000181119
42 *2063:RESET_B *705:12 0.000117832
43 *2065:D *1711:A1 0
44 *322:14 *1606:A 7.47419e-06
45 *329:10 *1759:A_N 0.000194694
46 *329:12 *705:12 0
47 *402:8 *1606:A 0.000197826
48 *402:8 *705:57 1.17309e-05
49 *404:22 *1711:A1 2.0851e-06
50 *413:41 *705:10 0.000113797
51 *454:14 *705:10 5.98004e-06
52 *454:14 *705:12 8.03581e-05
53 *454:14 *705:16 2.3036e-05
54 *666:16 *1711:A1 0.000141442
55 *666:16 *705:22 3.66286e-05
56 *677:27 *705:16 0
*RES
1 *2063:Q *705:4 1.6 
2 *705:4 *705:10 4.43 
3 *705:10 *705:12 2.655 
4 *705:12 *705:16 3.89 
5 *705:16 *705:22 4.71 
6 *705:22 *1711:A1 8.195 
7 *705:22 *1710:A1 1.6 
8 *705:16 *1785:A2 3.085 
9 *705:12 *705:57 6.38 
10 *705:57 *1606:A 9.86 
11 *705:57 *1786:A2 1.6 
12 *705:10 *2239:A 3.6 
13 *705:4 *1759:A_N 6.22 
*END

*D_NET *706 0.00408334
*CONN
*I *1742:A_N I *D sky130_fd_sc_hd__nand3b_2
*I *2196:A I *D sky130_fd_sc_hd__dlygate4sd3_1
*I *1715:A_N I *D sky130_fd_sc_hd__and3b_2
*I *1714:A_N I *D sky130_fd_sc_hd__nand2b_2
*I *2062:Q O *D sky130_fd_sc_hd__dfrtp_2
*CAP
1 *1742:A_N 0.000138453
2 *2196:A 4.04558e-05
3 *1715:A_N 0
4 *1714:A_N 0.000274691
5 *2062:Q 0.000104711
6 *706:34 0.000302646
7 *706:12 0.000767796
8 *706:6 0.000721553
9 *1714:A_N *1714:B 0
10 *1714:A_N *717:10 9.05535e-05
11 *1742:A_N *1742:B 8.82557e-05
12 *2196:A *1717:B 6.71882e-05
13 *706:12 *1738:A 0.000192184
14 *706:12 *717:10 2.02316e-05
15 mem_addr[10] *1742:A_N 8.65905e-05
16 mem_addr[8] *2196:A 6.71882e-05
17 *1740:A2 *706:12 0.000109463
18 *1792:B *1742:A_N 0.000181383
19 *1792:B *706:34 0.000407465
20 *1985:A *1714:A_N 0
21 *2162:A *1714:A_N 1.10435e-05
22 *2162:A *1742:A_N 6.0236e-05
23 *2162:A *706:12 5.33859e-05
24 *2162:A *706:34 0.000164454
25 *407:12 *706:12 0
26 *694:8 *1742:A_N 0.000123225
27 *694:27 *1742:A_N 1.0183e-05
*RES
1 *2062:Q *706:6 2.74 
2 *706:6 *706:12 10.145 
3 *706:12 *1714:A_N 8.325 
4 *706:12 *1715:A_N 3.6 
5 *706:6 *706:34 6.695 
6 *706:34 *2196:A 4.74 
7 *706:34 *1742:A_N 7.92 
*END

*D_NET *707 0.00112614
*CONN
*I *1605:A I *D sky130_fd_sc_hd__inv_2
*I *1842:A1 I *D sky130_fd_sc_hd__a21oi_2
*I *1633:A I *D sky130_fd_sc_hd__and3_2
*I *2082:Q O *D sky130_fd_sc_hd__dfstp_2
*CAP
1 *1605:A 6.10558e-05
2 *1842:A1 1.42366e-05
3 *1633:A 6.05383e-05
4 *2082:Q 6.48201e-05
5 *707:21 0.00021415
6 *707:6 0.000264216
7 *1633:A *1612:A 1.07797e-05
8 *1633:A *1633:C 4.66108e-05
9 *1633:A *718:10 4.87759e-05
10 *1736:A2 *1633:A 8.53113e-06
11 *1736:B1 *1633:A 4.82863e-05
12 *1842:B1 *707:21 4.66108e-05
13 *1944:A *1633:A 0.00011352
14 *2170:A *1605:A 0.000112349
15 *2170:A *707:21 1.16578e-05
*RES
1 *2082:Q *707:6 2.395 
2 *707:6 *1633:A 7.43 
3 *707:6 *707:21 1.83 
4 *707:21 *1842:A1 1.96 
5 *707:21 *1605:A 3.1 
*END

*D_NET *708 0.00278744
*CONN
*I *1798:A1 I *D sky130_fd_sc_hd__a21o_2
*I *1621:A2 I *D sky130_fd_sc_hd__a31o_2
*I *1614:A I *D sky130_fd_sc_hd__inv_2
*I *2102:Q O *D sky130_fd_sc_hd__dfstp_2
*CAP
1 *1798:A1 0
2 *1621:A2 0.000257276
3 *1614:A 0
4 *2102:Q 0.000526416
5 *708:16 0.000387053
6 *708:10 0.000656192
7 *1621:A2 *1621:A1 8.40213e-05
8 *1621:A2 *1621:B1 6.97034e-05
9 *1621:A2 *1722:A1 7.10578e-05
10 *1621:A2 *1841:A 0
11 *1621:A2 *734:12 0.000201508
12 *708:10 *1620:B 5.53249e-06
13 *708:16 *1620:A 2.42236e-05
14 *708:16 *1620:B 0.000113698
15 *708:16 *734:12 8.95933e-05
16 *1722:A2 *1621:A2 2.67184e-05
17 *1722:A3 *1621:A2 1.66291e-05
18 *1722:B1 *1621:A2 0.0001334
19 *1722:B1 *708:16 4.99619e-05
20 *1841:B *708:16 6.90876e-05
21 *2102:D *708:10 0
22 *539:18 *708:10 5.36384e-06
*RES
1 *2102:Q *708:10 9.825 
2 *708:10 *708:16 5.375 
3 *708:16 *1614:A 1.6 
4 *708:16 *1621:A2 7.6 
5 *708:10 *1798:A1 3.6 
*END

*D_NET *709 0.00162088
*CONN
*I *2185:A I *D sky130_fd_sc_hd__dlygate4sd3_1
*I *1626:A I *D sky130_fd_sc_hd__and3_2
*I *2084:Q O *D sky130_fd_sc_hd__dfrtp_2
*CAP
1 *2185:A 0.000135348
2 *1626:A 0.000351262
3 *2084:Q 0
4 *709:6 0.00048661
5 *1626:A *1783:B2 0
6 *2185:A *1616:A 0
7 *1783:B1 *1626:A 0
8 *1783:B1 *2185:A 0
9 *1784:A *2185:A 0
10 *1788:C1 *1626:A 0.000395637
11 *1788:C1 *2185:A 4.44927e-05
12 *2059:CLK *2185:A 4.82863e-05
13 *2060:D *2185:A 0.000111467
14 *2085:RESET_B *1626:A 4.77807e-05
*RES
1 *2084:Q *709:6 3.6 
2 *709:6 *1626:A 10.185 
3 *709:6 *2185:A 6.705 
*END

*D_NET *710 0.00276353
*CONN
*I *2178:A I *D sky130_fd_sc_hd__dlygate4sd3_1
*I *1636:A I *D sky130_fd_sc_hd__and3_2
*I *2083:Q O *D sky130_fd_sc_hd__dfrtp_2
*CAP
1 *2178:A 0.000304083
2 *1636:A 0.000607403
3 *2083:Q 0.000112546
4 *710:8 0.00102403
5 *1636:A *719:60 2.50059e-05
6 mem_addr[11] *1636:A 0.000354508
7 mem_addr[16] *1636:A 0
8 mem_addr[17] *1636:A 5.93601e-05
9 mem_addr[19] *1636:A 0.000104042
10 mem_addr[21] *1636:A 5.90415e-05
11 mem_addr[22] *2178:A 0
12 mem_addr[25] *2178:A 0
13 mem_addr[27] *2178:A 0.000113511
14 *1935:A *2178:A 0
15 *691:36 *1636:A 0
*RES
1 *2083:Q *710:8 4.74 
2 *710:8 *1636:A 14.16 
3 *710:8 *2178:A 8.745 
*END

*D_NET *711 0.00310296
*CONN
*I *1799:A1 I *D sky130_fd_sc_hd__a21o_2
*I *1623:A3 I *D sky130_fd_sc_hd__a31o_2
*I *1616:A I *D sky130_fd_sc_hd__inv_2
*I *2101:Q O *D sky130_fd_sc_hd__dfstp_2
*CAP
1 *1799:A1 0
2 *1623:A3 1.10883e-05
3 *1616:A 0.000401585
4 *2101:Q 0.000188034
5 *711:20 0.000825447
6 *711:10 0.000600808
7 *1623:A3 *1615:A 2.16833e-05
8 *1623:A3 *734:71 1.08758e-05
9 *711:10 *1621:B1 0
10 *711:20 *1622:A 0
11 *711:20 *1623:A1 0.000116158
12 *711:20 *1623:B1 8.34348e-05
13 *1632:A1 *1616:A 4.82919e-05
14 *1798:B1 *711:10 5.53249e-06
15 *1798:B1 *711:20 2.7881e-05
16 *1973:A *1616:A 0
17 *2059:CLK *1616:A 0.000199833
18 *2060:D *1616:A 9.50342e-06
19 *2084:RESET_B *1616:A 0
20 *2185:A *1616:A 0
21 *331:10 *1616:A 0
22 *335:10 *1623:A3 4.82863e-05
23 *337:12 *711:20 0.000115691
24 *341:31 *711:20 0.000353429
25 *535:209 *711:10 0
26 *539:24 *711:10 0
27 *539:63 *711:20 3.54025e-05
*RES
1 *2101:Q *711:10 6.375 
2 *711:10 *711:20 12.535 
3 *711:20 *1616:A 9.69 
4 *711:20 *1623:A3 4.05 
5 *711:10 *1799:A1 3.6 
*END

*D_NET *712 0.00365585
*CONN
*I *1747:C I *D sky130_fd_sc_hd__nand3b_2
*I *2248:A I *D sky130_fd_sc_hd__dlygate4sd3_1
*I *1744:B I *D sky130_fd_sc_hd__or2_2
*I *1761:B I *D sky130_fd_sc_hd__or3b_2
*I *1745:B I *D sky130_fd_sc_hd__or3b_2
*I *1750:C_N I *D sky130_fd_sc_hd__or3b_2
*I *2051:Q O *D sky130_fd_sc_hd__dfrtp_2
*CAP
1 *1747:C 0.000112808
2 *2248:A 4.30598e-05
3 *1744:B 8.76196e-05
4 *1761:B 0
5 *1745:B 0
6 *1750:C_N 0.000148662
7 *2051:Q 0
8 *712:42 0.000297948
9 *712:36 0.000298056
10 *712:25 9.00609e-05
11 *712:12 0.000285882
12 *712:4 0.000204635
13 *1744:B *1744:A 0.000263154
14 *1747:C *1747:B 2.43747e-05
15 *1747:C *714:36 3.01609e-05
16 *1750:C_N *1750:A 8.49205e-05
17 *1750:C_N *1750:B 0.000237187
18 *1750:C_N *713:16 4.55632e-05
19 *2248:A *1746:B 4.82919e-05
20 *712:12 *713:16 1.88904e-05
21 *712:25 *713:14 4.03082e-05
22 *712:25 *713:16 5.57043e-05
23 *712:36 *713:12 1.1561e-05
24 *712:36 *713:14 6.74079e-05
25 *712:42 *1744:A 3.09233e-05
26 *712:42 *731:124 0
27 *1755:A3 *2248:A 6.97202e-05
28 *1755:A3 *712:42 4.80285e-05
29 *1757:A1 *1750:C_N 0.000375693
30 *1757:A1 *712:25 5.17961e-05
31 *1764:A *712:42 3.45588e-05
32 *2051:RESET_B *1747:C 8.65905e-05
33 *2051:RESET_B *712:12 4.21973e-05
34 *433:12 *1750:C_N 3.23391e-05
35 *436:12 *712:25 6.64068e-05
36 *436:12 *712:36 7.34364e-05
37 *436:33 *1744:B 0.000102125
38 *436:33 *712:42 3.39069e-05
39 *437:23 *712:42 7.71016e-05
40 *442:10 *712:42 3.47668e-05
41 *446:12 *1744:B 0
*RES
1 *2051:Q *712:4 1.6 
2 *712:4 *712:12 3.4775 
3 *712:12 *1750:C_N 9.4725 
4 *712:12 *712:25 2.0175 
5 *712:25 *1745:B 3.6 
6 *712:25 *712:36 3.635 
7 *712:36 *712:42 6.485 
8 *712:42 *1761:B 3.6 
9 *712:42 *1744:B 6.765 
10 *712:36 *2248:A 2.74 
11 *712:4 *1747:C 3.805 
*END

*D_NET *713 0.00545517
*CONN
*I *1744:A I *D sky130_fd_sc_hd__or2_2
*I *1761:C_N I *D sky130_fd_sc_hd__or3b_2
*I *1763:A1 I *D sky130_fd_sc_hd__a22o_2
*I *1746:B I *D sky130_fd_sc_hd__nand2b_2
*I *1745:A I *D sky130_fd_sc_hd__or3b_2
*I *1747:B I *D sky130_fd_sc_hd__nand3b_2
*I *1750:B I *D sky130_fd_sc_hd__or3b_2
*I *2052:Q O *D sky130_fd_sc_hd__dfrtp_2
*CAP
1 *1744:A 9.74343e-05
2 *1761:C_N 0
3 *1763:A1 8.36962e-05
4 *1746:B 0.000124483
5 *1745:A 0
6 *1747:B 0.000189974
7 *1750:B 0.000385691
8 *2052:Q 0.000103972
9 *713:64 0.00017018
10 *713:60 0.00034093
11 *713:16 0.000685949
12 *713:14 0.000173974
13 *713:12 0.000333666
14 *713:10 0.000406478
15 *1746:B *1746:A_N 4.77757e-05
16 *1747:B *714:36 9.59685e-05
17 *1750:B *1750:A 8.87182e-05
18 *1750:B *714:12 4.19967e-05
19 *1750:B *714:36 0.000100138
20 *713:12 *714:53 1.0183e-05
21 *713:12 *714:70 7.46178e-05
22 *713:14 *714:40 0
23 *713:14 *714:53 6.22834e-05
24 *713:16 *714:36 1.71013e-05
25 *713:16 *714:40 0
26 *713:60 *1761:A 0.000273878
27 *1744:B *1744:A 0.000263154
28 *1747:C *1747:B 2.43747e-05
29 *1750:C_N *1750:B 0.000237187
30 *1750:C_N *713:16 4.55632e-05
31 *1755:A2 *1746:B 2.86975e-05
32 *1755:A3 *1746:B 5.18171e-05
33 *1763:A2 *1763:A1 0.00012047
34 *1763:A2 *713:60 9.80032e-06
35 *1763:A2 *713:64 4.43682e-05
36 *1763:B2 *1763:A1 3.02252e-05
37 *1763:B2 *713:64 0
38 *1770:A2_N *713:10 0
39 *2051:RESET_B *1747:B 4.21973e-05
40 *2051:RESET_B *713:16 8.08153e-06
41 *2052:D *1763:A1 5.05437e-05
42 *2052:RESET_B *1744:A 0.000115815
43 *2248:A *1746:B 4.82919e-05
44 *427:32 *713:10 0
45 *433:12 *1750:B 0
46 *436:12 *713:12 0
47 *436:33 *1744:A 4.66108e-05
48 *436:33 *713:10 0
49 *436:33 *713:12 0
50 *442:10 *1744:A 0.000100316
51 *446:12 *713:10 2.87867e-05
52 *550:10 *1744:A 2.49909e-05
53 *712:12 *713:16 1.88904e-05
54 *712:25 *713:14 4.03082e-05
55 *712:25 *713:16 5.57043e-05
56 *712:36 *713:12 1.1561e-05
57 *712:36 *713:14 6.74079e-05
58 *712:42 *1744:A 3.09233e-05
*RES
1 *2052:Q *713:10 5.175 
2 *713:10 *713:12 2.655 
3 *713:12 *713:14 2.145 
4 *713:14 *713:16 2.4 
5 *713:16 *1750:B 10.905 
6 *713:16 *1747:B 6.84 
7 *713:14 *1745:A 3.6 
8 *713:12 *1746:B 6.12 
9 *713:10 *713:60 4.865 
10 *713:60 *713:64 1.5 
11 *713:64 *1763:A1 3.79 
12 *713:64 *1761:C_N 1.6 
13 *713:60 *1744:A 9.47 
*END

*D_NET *714 0.00412871
*CONN
*I *1747:A_N I *D sky130_fd_sc_hd__nand3b_2
*I *1770:B2 I *D sky130_fd_sc_hd__o2bb2a_2
*I *1761:A I *D sky130_fd_sc_hd__or3b_2
*I *1746:A_N I *D sky130_fd_sc_hd__nand2b_2
*I *1745:C_N I *D sky130_fd_sc_hd__or3b_2
*I *2244:A I *D sky130_fd_sc_hd__dlygate4sd3_1
*I *1750:A I *D sky130_fd_sc_hd__or3b_2
*I *2053:Q O *D sky130_fd_sc_hd__dfrtp_2
*CAP
1 *1747:A_N 0
2 *1770:B2 4.32528e-05
3 *1761:A 9.09053e-05
4 *1746:A_N 1.23867e-05
5 *1745:C_N 0
6 *2244:A 0
7 *1750:A 0.000114017
8 *2053:Q 9.41812e-05
9 *714:70 0.000307118
10 *714:53 0.00033166
11 *714:40 0.000292333
12 *714:36 0.000328185
13 *714:12 0.000170205
14 *714:8 0.000332535
15 *1746:B *1746:A_N 4.77757e-05
16 *1747:B *714:36 9.59685e-05
17 *1747:C *714:36 3.01609e-05
18 *1750:B *1750:A 8.87182e-05
19 *1750:B *714:12 4.19967e-05
20 *1750:B *714:36 0.000100138
21 *1750:C_N *1750:A 8.49205e-05
22 *1755:A3 *1746:A_N 2.68526e-05
23 *1756:A *714:36 0
24 *1757:A0 *714:8 3.80606e-05
25 *1763:A2 *1761:A 4.80285e-05
26 *1770:A1_N *1761:A 0.000123164
27 *1770:A1_N *1770:B2 3.48117e-05
28 *1770:A2_N *714:70 3.67779e-05
29 *1942:A *1750:A 0.000421068
30 *1942:A *714:12 9.08126e-05
31 *1942:A *714:36 8.30853e-06
32 *2051:RESET_B *714:36 0.000162769
33 *2051:RESET_B *714:40 8.30853e-06
34 *437:6 *1761:A 8.52315e-05
35 *713:12 *714:53 1.0183e-05
36 *713:12 *714:70 7.46178e-05
37 *713:14 *714:40 0
38 *713:14 *714:53 6.22834e-05
39 *713:16 *714:36 1.71013e-05
40 *713:16 *714:40 0
41 *713:60 *1761:A 0.000273878
*RES
1 *2053:Q *714:8 4.74 
2 *714:8 *714:12 3.38 
3 *714:12 *1750:A 5.5 
4 *714:12 *2244:A 1.6 
5 *714:8 *714:36 6.365 
6 *714:36 *714:40 3.89 
7 *714:40 *1745:C_N 3.6 
8 *714:40 *714:53 2.955 
9 *714:53 *1746:A_N 4.05 
10 *714:53 *714:70 4.7 
11 *714:70 *1761:A 4.81 
12 *714:70 *1770:B2 2.41 
13 *714:36 *1747:A_N 1.6 
*END

*D_NET *715 0.000894915
*CONN
*I *2237:A I *D sky130_fd_sc_hd__dlygate4sd3_1
*I *1753:A_N I *D sky130_fd_sc_hd__nand2b_2
*I *2100:Q O *D sky130_fd_sc_hd__dfrtp_2
*CAP
1 *2237:A 0.000117398
2 *1753:A_N 8.97447e-05
3 *2100:Q 0
4 *715:4 0.000207142
5 *1753:A_N *731:124 0.000178946
6 *1723:B1 *2237:A 1.79098e-05
7 *701:24 *2237:A 0.000283775
*RES
1 *2100:Q *715:4 1.6 
2 *715:4 *1753:A_N 7.745 
3 *715:4 *2237:A 4.465 
*END

*D_NET *716 0.00485143
*CONN
*I *1741:A2 I *D sky130_fd_sc_hd__a22o_2
*I *1734:B I *D sky130_fd_sc_hd__nand2_2
*I *1843:B1_N I *D sky130_fd_sc_hd__a21boi_2
*I *1796:C I *D sky130_fd_sc_hd__and3_2
*I *2095:Q O *D sky130_fd_sc_hd__dfrtp_2
*CAP
1 *1741:A2 0.000235078
2 *1734:B 0.000193506
3 *1843:B1_N 3.55506e-05
4 *1796:C 0.000303503
5 *2095:Q 7.87758e-05
6 *716:10 0.000467197
7 *716:8 0.000431245
8 *716:6 0.00042345
9 *1741:A2 *1741:A1 0.000258137
10 *1741:A2 *1796:A 0.000116853
11 *1741:A2 *721:14 4.82919e-05
12 *1741:A2 *721:25 0.000143224
13 *1734:A *1734:B 0.000190853
14 *1743:A2 *1741:A2 8.96017e-05
15 *1743:A3 *1741:A2 0.000116151
16 *1755:B1 *1796:C 5.81675e-05
17 *1766:B1_N *1796:C 7.23602e-05
18 *1797:B1 *1796:C 1.19928e-05
19 *1797:C1 *1796:C 3.05373e-05
20 *2094:CLK *1741:A2 0.000179027
21 *2175:A *716:6 0.000122331
22 *2175:A *716:8 0.00015639
23 *2175:A *716:10 4.66108e-05
24 *13:12 *1734:B 1.61212e-05
25 *13:12 *1796:C 0
26 *444:8 *1796:C 3.05646e-05
27 *552:62 *1741:A2 0.000268271
28 *556:14 *1734:B 0.000322291
29 *556:20 *1734:B 5.16418e-05
30 *692:78 *1734:B 0.000353702
*RES
1 *2095:Q *716:6 2.74 
2 *716:6 *716:8 1.485 
3 *716:8 *716:10 1.485 
4 *716:10 *1796:C 10.025 
5 *716:10 *1843:B1_N 2.215 
6 *716:8 *1734:B 12.335 
7 *716:6 *1741:A2 13.52 
*END

*D_NET *717 0.00211547
*CONN
*I *2213:A I *D sky130_fd_sc_hd__dlygate4sd3_1
*I *1738:A I *D sky130_fd_sc_hd__nor2_2
*I *1715:C I *D sky130_fd_sc_hd__and3b_2
*I *2096:Q O *D sky130_fd_sc_hd__dfrtp_2
*CAP
1 *2213:A 0.000191112
2 *1738:A 0.000109518
3 *1715:C 4.25208e-05
4 *2096:Q 7.98024e-05
5 *717:21 0.000331305
6 *717:10 0.000152999
7 *1714:A_N *717:10 9.05535e-05
8 *1795:A1 *1715:C 6.74615e-05
9 *1795:A1 *2213:A 0.000158556
10 *1795:A1 *717:21 0.000119873
11 *2162:A *1715:C 0.000126488
12 *2162:A *1738:A 0.000350325
13 *2162:A *2213:A 2.0187e-05
14 *2162:A *717:21 6.23576e-05
15 *706:12 *1738:A 0.000192184
16 *706:12 *717:10 2.02316e-05
*RES
1 *2096:Q *717:10 6.98 
2 *717:10 *1715:C 3.13375 
3 *717:10 *717:21 1.14 
4 *717:21 *1738:A 9.785 
5 *717:21 *2213:A 5.155 
*END

*D_NET *718 0.00266986
*CONN
*I *1633:C I *D sky130_fd_sc_hd__and3_2
*I *1612:A I *D sky130_fd_sc_hd__inv_2
*I *2097:Q O *D sky130_fd_sc_hd__dfrtp_2
*CAP
1 *1633:C 0.000152966
2 *1612:A 0.000258082
3 *2097:Q 0.00051249
4 *718:10 0.000923539
5 *1633:A *1612:A 1.07797e-05
6 *1633:A *1633:C 4.66108e-05
7 *1633:A *718:10 4.87759e-05
8 *1735:A2 *1612:A 1.14192e-05
9 *1736:A2 *1612:A 0.000199821
10 *1736:A2 *1633:C 4.66108e-05
11 *1736:B1 *1633:C 5.30022e-05
12 *1944:A *718:10 0.000307828
13 *2055:D *1612:A 0
14 *2055:D *718:10 0
15 *13:12 *1612:A 0
16 *13:12 *718:10 0
17 *13:14 *718:10 2.78248e-05
18 *694:67 *1612:A 7.01132e-05
*RES
1 *2097:Q *718:10 11.76 
2 *718:10 *1612:A 8.445 
3 *718:10 *1633:C 5.43 
*END

*D_NET *719 0.00580081
*CONN
*I *1636:B I *D sky130_fd_sc_hd__and3_2
*I *1794:A1 I *D sky130_fd_sc_hd__a211o_2
*I *1741:B1 I *D sky130_fd_sc_hd__a22o_2
*I *1742:B I *D sky130_fd_sc_hd__nand3b_2
*I *1635:A I *D sky130_fd_sc_hd__nand2_2
*I *1717:B I *D sky130_fd_sc_hd__nand3_2
*I *2098:Q O *D sky130_fd_sc_hd__dfrtp_2
*CAP
1 *1636:B 0
2 *1794:A1 0
3 *1741:B1 0.000181561
4 *1742:B 0.000320574
5 *1635:A 2.05652e-05
6 *1717:B 0.000326169
7 *2098:Q 0.000444964
8 *719:66 0.000378857
9 *719:60 0.000437198
10 *719:14 0.000422888
11 *719:10 0.000601789
12 *1741:B1 *721:25 6.61538e-05
13 *1741:B1 *721:36 2.87433e-05
14 *1742:B *1742:C 3.70488e-05
15 *719:10 *1636:C 9.37731e-05
16 *719:14 *1636:C 0.000199734
17 *719:60 *1636:C 0
18 mem_addr[10] *1742:B 0.000275542
19 mem_addr[8] *1635:A 2.11084e-05
20 mem_addr[8] *1717:B 5.37577e-05
21 *1636:A *719:60 2.50059e-05
22 *1718:A1 *1717:B 6.19997e-05
23 *1742:A_N *1742:B 8.82557e-05
24 *1743:A1 *719:10 8.69157e-05
25 *1743:A1 *719:14 0.000203769
26 *1743:A1 *719:60 0
27 *1743:A1 *719:66 0.000201835
28 *1743:A3 *1742:B 0
29 *1743:B1 *719:66 4.99619e-05
30 *1793:A *1717:B 5.14739e-05
31 *1794:A2 *1717:B 8.8266e-05
32 *1794:A2 *1741:B1 0.000139245
33 *1794:B1 *1741:B1 7.63204e-05
34 *1987:A *719:66 0.0001249
35 *2098:CLK *1741:B1 5.91029e-05
36 *2196:A *1717:B 6.71882e-05
37 *349:6 *719:66 0.000454522
38 *556:88 *1717:B 4.82863e-05
39 *701:74 *719:60 6.33424e-05
*RES
1 *2098:Q *719:10 6.555 
2 *719:10 *719:14 4.4 
3 *719:14 *1717:B 7.6 
4 *719:14 *1635:A 2.05 
5 *719:10 *1742:B 9.36 
6 *2098:Q *719:60 9.23 
7 *719:60 *719:66 6.255 
8 *719:66 *1741:B1 9.41 
9 *719:66 *1794:A1 1.6 
10 *719:60 *1636:B 1.6 
*END

*D_NET *720 0.00209994
*CONN
*I *2226:A I *D sky130_fd_sc_hd__dlygate4sd3_1
*I *1635:B I *D sky130_fd_sc_hd__nand2_2
*I *1636:C I *D sky130_fd_sc_hd__and3_2
*I *2092:Q O *D sky130_fd_sc_hd__dfrtp_2
*CAP
1 *2226:A 2.25487e-05
2 *1635:B 0
3 *1636:C 0.000289818
4 *2092:Q 0.000199581
5 *720:14 0.000422609
6 *720:12 0.00035492
7 mem_addr[8] *1636:C 2.68464e-05
8 mem_addr[8] *2226:A 2.10214e-05
9 mem_addr[8] *720:12 4.70326e-05
10 mem_addr[8] *720:14 0.000145495
11 *1743:A1 *1636:C 0.000137313
12 *1792:A *1636:C 0
13 *691:36 *720:12 0.000139245
14 *701:57 *1636:C 0
15 *701:74 *1636:C 0
16 *719:10 *1636:C 9.37731e-05
17 *719:14 *1636:C 0.000199734
18 *719:60 *1636:C 0
*RES
1 *2092:Q *720:12 8.72 
2 *720:12 *720:14 2.52 
3 *720:14 *1636:C 11.96 
4 *720:14 *1635:B 1.6 
5 *720:12 *2226:A 2.05 
*END

*D_NET *721 0.00288608
*CONN
*I *1742:C I *D sky130_fd_sc_hd__nand3b_2
*I *1717:C I *D sky130_fd_sc_hd__nand3_2
*I *1741:B2 I *D sky130_fd_sc_hd__a22o_2
*I *2214:A I *D sky130_fd_sc_hd__dlygate4sd3_1
*I *2093:Q O *D sky130_fd_sc_hd__dfrtp_2
*CAP
1 *1742:C 0.000153865
2 *1717:C 4.33627e-05
3 *1741:B2 0
4 *2214:A 0
5 *2093:Q 0.000353304
6 *721:36 0.000290041
7 *721:25 0.000169209
8 *721:14 0.000429701
9 *721:25 *1741:A1 4.06946e-05
10 *1741:A2 *721:14 4.82919e-05
11 *1741:A2 *721:25 0.000143224
12 *1741:B1 *721:25 6.61538e-05
13 *1741:B1 *721:36 2.87433e-05
14 *1742:B *1742:C 3.70488e-05
15 *1743:A3 *1742:C 2.65814e-06
16 *1743:A3 *721:14 0.000142661
17 *1791:B1 *721:14 0
18 *1794:B1 *1717:C 7.63125e-05
19 *1794:B1 *721:36 0.000125541
20 *2094:CLK *721:14 4.82919e-05
21 *2094:CLK *721:25 0.000235056
22 *2098:CLK *721:25 1.54111e-05
23 *2098:CLK *721:36 9.57985e-06
24 *426:43 *721:14 4.82863e-05
25 *537:10 *721:36 5.23362e-05
26 *537:12 *721:14 0
27 *537:12 *721:36 0.000162318
28 *537:14 *1717:C 0.000140905
29 *537:14 *721:36 2.30797e-05
*RES
1 *2093:Q *721:14 11.84 
2 *721:14 *2214:A 1.6 
3 *721:14 *721:25 3.1575 
4 *721:25 *1741:B2 1.6 
5 *721:25 *721:36 4.9325 
6 *721:36 *1717:C 5.235 
7 *721:36 *1742:C 5.79 
*END

*D_NET *722 0.00173554
*CONN
*I *2216:A I *D sky130_fd_sc_hd__dlygate4sd3_1
*I *1715:B I *D sky130_fd_sc_hd__and3b_2
*I *1714:B I *D sky130_fd_sc_hd__nand2b_2
*I *2054:Q O *D sky130_fd_sc_hd__dfrtp_2
*CAP
1 *2216:A 4.29949e-05
2 *1715:B 3.58256e-05
3 *1714:B 0.000243586
4 *2054:Q 8.92861e-05
5 *722:12 0.000335065
6 *722:10 0.000187934
7 *1714:A_N *1714:B 0
8 *1740:A2 *2216:A 6.92161e-05
9 *1740:A2 *722:10 4.70799e-05
10 *1740:A2 *722:12 1.83205e-05
11 *1795:A1 *1715:B 2.69217e-05
12 *1795:A2 *1714:B 6.37751e-05
13 *2096:RESET_B *1714:B 0.000158112
14 *407:12 *1714:B 9.12494e-06
15 *407:12 *722:10 0.000126927
16 *407:12 *722:12 0.000104891
17 *421:25 *722:10 1.79174e-05
18 *692:14 *2216:A 0.000158564
*RES
1 *2054:Q *722:10 5.685 
2 *722:10 *722:12 1.38 
3 *722:12 *1714:B 8.295 
4 *722:12 *1715:B 4.05 
5 *722:10 *2216:A 5.085 
*END

*D_NET *723 0.00390283
*CONN
*I *1706:C I *D sky130_fd_sc_hd__and4b_2
*I *1785:B1 I *D sky130_fd_sc_hd__o21a_2
*I *1732:B1 I *D sky130_fd_sc_hd__o21a_2
*I *2057:Q O *D sky130_fd_sc_hd__dfrtp_2
*CAP
1 *1706:C 0.000100849
2 *1785:B1 0.000138153
3 *1732:B1 0.00023556
4 *2057:Q 0.000735156
5 *723:19 0.000342423
6 *723:8 0.00107414
7 *1706:C *1706:D 6.33103e-05
8 *1732:B1 *724:12 1.06022e-05
9 *1785:B1 *1706:D 3.80768e-05
10 *1785:B1 *1708:A_N 0.000116165
11 *1785:B1 *738:10 1.10359e-05
12 *1785:B1 *738:29 6.33194e-05
13 *723:8 *1731:A1 3.1562e-06
14 *723:19 *724:12 5.69216e-05
15 *1732:A1 *1732:B1 0
16 *1732:A2 *1732:B1 0.000351011
17 *1732:A2 *723:8 4.66108e-05
18 *1848:A *1732:B1 6.54361e-06
19 *1848:A *723:8 6.30288e-05
20 *1848:B *1732:B1 0
21 *2057:CLK *723:8 4.90227e-05
22 *2057:D *1732:B1 7.28465e-06
23 *2057:D *723:8 3.25525e-05
24 *329:12 *1732:B1 9.05545e-05
25 *329:12 *1785:B1 1.18673e-05
26 *329:12 *723:19 0.000240274
27 *705:16 *1785:B1 1.52184e-05
*RES
1 *2057:Q *723:8 11.985 
2 *723:8 *1732:B1 8.55 
3 *723:8 *723:19 2.91 
4 *723:19 *1785:B1 7.05 
5 *723:19 *1706:C 4.74 
*END

*D_NET *724 0.00263587
*CONN
*I *1729:B1 I *D sky130_fd_sc_hd__o21a_2
*I *1786:B1 I *D sky130_fd_sc_hd__o21a_2
*I *1708:C I *D sky130_fd_sc_hd__and4b_2
*I *2058:Q O *D sky130_fd_sc_hd__dfrtp_2
*CAP
1 *1729:B1 3.4318e-05
2 *1786:B1 7.11493e-05
3 *1708:C 5.22828e-05
4 *2058:Q 0.000300086
5 *724:16 0.00025133
6 *724:12 0.000462302
7 *1708:C *1708:D 4.66108e-05
8 *1708:C *739:26 0.000118081
9 *1786:B1 *1707:A 4.82919e-05
10 *1786:B1 *733:20 5.7344e-05
11 *724:12 *738:10 2.69443e-06
12 *1706:B *1786:B1 5.16418e-05
13 *1706:B *724:16 0.000178588
14 *1728:B1 *724:16 8.70322e-05
15 *1730:B *1729:B1 3.93467e-05
16 *1730:B *724:12 6.72833e-06
17 *1731:B1 *724:16 0.000240561
18 *1732:A1 *1729:B1 4.66108e-05
19 *1732:A1 *724:16 2.98644e-05
20 *1732:A2 *724:12 0.000156643
21 *1732:B1 *724:12 1.06022e-05
22 *2057:CLK *724:12 1.79536e-05
23 *2057:D *724:12 9.23578e-05
24 *329:12 *1786:B1 8.26614e-05
25 *329:12 *724:16 6.6348e-05
26 *705:57 *1786:B1 2.75229e-05
27 *723:19 *724:12 5.69216e-05
*RES
1 *2058:Q *724:12 10.85 
2 *724:12 *724:16 6.44 
3 *724:16 *1708:C 4.74 
4 *724:16 *1786:B1 5.94 
5 *724:12 *1729:B1 2.395 
*END

*D_NET *725 0.00150303
*CONN
*I *2169:A I *D sky130_fd_sc_hd__dlygate4sd3_1
*I *1633:B I *D sky130_fd_sc_hd__and3_2
*I *2055:Q O *D sky130_fd_sc_hd__dfrtp_2
*CAP
1 *2169:A 9.73826e-05
2 *1633:B 0.000153985
3 *2055:Q 0.000124663
4 *725:6 0.000376031
5 *1842:B1 *1633:B 0.000197385
6 *1944:A *1633:B 1.20662e-05
7 *1986:A *1633:B 0.000398699
8 *328:8 *1633:B 3.09164e-05
9 *565:10 *2169:A 8.43862e-05
10 *565:10 *725:6 2.75145e-05
*RES
1 *2055:Q *725:6 3.43 
2 *725:6 *1633:B 10.295 
3 *725:6 *2169:A 3.43 
*END

*D_NET *726 0.00474545
*CONN
*I *1620:A I *D sky130_fd_sc_hd__nand2_2
*I *2223:A I *D sky130_fd_sc_hd__dlygate4sd3_1
*I *1621:A1 I *D sky130_fd_sc_hd__a31o_2
*I *1783:A1 I *D sky130_fd_sc_hd__a22o_2
*I *2059:Q O *D sky130_fd_sc_hd__dfrtp_2
*CAP
1 *1620:A 0.000346107
2 *2223:A 1.02819e-05
3 *1621:A1 0.000148161
4 *1783:A1 0.000177254
5 *2059:Q 0
6 *726:34 0.000454325
7 *726:8 0.000925323
8 *726:4 0.000697844
9 *1620:A *1620:B 7.23602e-05
10 *1621:A1 *1722:A1 0.000114492
11 *1621:A1 *727:40 0.000171179
12 *1783:A1 *1722:A1 8.99646e-05
13 *1783:A1 *727:25 0.000137571
14 *1783:A1 *727:40 0.000229217
15 *1783:A1 *731:124 0.000454707
16 *2223:A *1841:A 4.77757e-05
17 *726:8 *1721:A1 1.1392e-05
18 *1621:A2 *1621:A1 8.40213e-05
19 *1783:B1 *1783:A1 0.000107829
20 *1798:A2 *1620:A 0.000324123
21 *1841:B *2223:A 4.77757e-05
22 *1841:B *726:34 0
23 *2059:RESET_B *726:8 1.23607e-05
24 *13:14 *1620:A 5.71649e-05
25 *535:15 *1621:A1 0
26 *708:16 *1620:A 2.42236e-05
*RES
1 *2059:Q *726:4 1.6 
2 *726:4 *726:8 8.315 
3 *726:8 *1783:A1 10.53 
4 *726:8 *1621:A1 6.54 
5 *726:4 *726:34 3.38 
6 *726:34 *2223:A 4.05 
7 *726:34 *1620:A 9.51 
*END

*D_NET *727 0.00410161
*CONN
*I *1622:A I *D sky130_fd_sc_hd__nand2_2
*I *1623:A1 I *D sky130_fd_sc_hd__a31o_2
*I *2222:A I *D sky130_fd_sc_hd__dlygate4sd3_1
*I *1783:B2 I *D sky130_fd_sc_hd__a22o_2
*I *2060:Q O *D sky130_fd_sc_hd__dfrtp_2
*CAP
1 *1622:A 0.000102956
2 *1623:A1 0.000191104
3 *2222:A 9.44331e-05
4 *1783:B2 0.000192716
5 *2060:Q 9.33526e-05
6 *727:40 0.000543377
7 *727:25 0.000383539
8 *727:6 0.000325857
9 *1622:A *1621:B1 0.00020613
10 *1623:A1 *1622:B 4.41506e-05
11 *1623:A1 *1623:B1 0.000116158
12 *1623:A1 *734:44 5.83121e-06
13 *727:40 *1621:B1 0
14 *727:40 *734:44 6.52265e-05
15 *727:40 *734:63 4.49498e-05
16 *1621:A1 *727:40 0.000171179
17 *1626:A *1783:B2 0
18 *1783:A1 *727:25 0.000137571
19 *1783:A1 *727:40 0.000229217
20 *1783:B1 *1783:B2 0.000201518
21 *1783:B1 *727:25 0.000139245
22 *1783:B1 *727:40 0.000194258
23 *1784:B *2222:A 0.000194694
24 *1798:B1 *1622:A 0
25 *1798:B1 *727:40 1.22676e-05
26 *1949:A *1783:B2 8.33066e-06
27 *2060:RESET_B *1783:B2 4.41857e-05
28 *331:10 *727:40 0
29 *341:31 *1623:A1 4.41506e-05
30 *535:6 *1623:A1 5.83121e-06
31 *535:6 *727:40 7.10578e-05
32 *535:15 *727:40 0
33 *551:18 *1783:B2 4.60814e-05
34 *551:18 *727:6 6.04372e-05
35 *684:10 *1623:A1 1.56428e-05
36 *711:20 *1622:A 0
37 *711:20 *1623:A1 0.000116158
*RES
1 *2060:Q *727:6 2.74 
2 *727:6 *1783:B2 9.5 
3 *727:6 *727:25 3.635 
4 *727:25 *2222:A 5.43 
5 *727:25 *727:40 9.11 
6 *727:40 *1623:A1 9.5 
7 *727:40 *1622:A 8 
*END

*D_NET *728 0.00344657
*CONN
*I *2182:A I *D sky130_fd_sc_hd__dlygate4sd3_1
*I *1758:A1 I *D sky130_fd_sc_hd__a22o_2
*I *1719:A I *D sky130_fd_sc_hd__and3_2
*I *2061:Q O *D sky130_fd_sc_hd__dfrtp_2
*CAP
1 *2182:A 0
2 *1758:A1 0.000536534
3 *1719:A 0.000578711
4 *2061:Q 8.2991e-05
5 *728:27 0.000782136
6 *728:10 0.000907305
7 *1719:A *1719:C 8.65905e-05
8 *1758:A1 *1758:A2 2.66362e-05
9 *1719:B *1719:A 7.46156e-05
10 *1760:A2 *1758:A1 1.17409e-05
11 *1977:A *1758:A1 8.65905e-05
12 *2061:RESET_B *728:10 7.45708e-05
13 *2061:RESET_B *728:27 7.5448e-05
14 *2088:D *728:27 0.000118513
15 *550:12 *728:27 0
16 *550:14 *728:27 0
17 *681:8 *728:10 0
18 *681:8 *728:27 0
19 *681:19 *728:27 0
20 *681:32 *728:27 4.18603e-06
*RES
1 *2061:Q *728:10 4.92 
2 *728:10 *1719:A 10.725 
3 *728:10 *728:27 6.695 
4 *728:27 *1758:A1 8.965 
5 *728:27 *2182:A 1.6 
*END

*D_NET *729 0.00398134
*CONN
*I *2174:A I *D sky130_fd_sc_hd__dlygate4sd3_1
*I *1741:A1 I *D sky130_fd_sc_hd__a22o_2
*I *1796:A I *D sky130_fd_sc_hd__and3_2
*I *2056:Q O *D sky130_fd_sc_hd__dfrtp_2
*CAP
1 *2174:A 9.37448e-05
2 *1741:A1 0.000382091
3 *1796:A 0.000569819
4 *2056:Q 0.000569819
5 *729:30 0.000475835
6 *1741:A2 *1741:A1 0.000258137
7 *1741:A2 *1796:A 0.000116853
8 *1743:A2 *1741:A1 0.000194431
9 *1743:A3 *1741:A1 0
10 *1743:B1 *1796:A 0
11 *1797:A2 *1796:A 0.000237243
12 *1797:B1 *1796:A 4.92062e-05
13 *1945:A *2174:A 8.41384e-05
14 *2056:CLK *1796:A 6.05513e-05
15 *2056:RESET_B *1741:A1 0
16 *2056:RESET_B *2174:A 4.71087e-05
17 *2094:D *1796:A 4.66108e-05
18 *2152:A *1741:A1 0
19 *2175:A *1741:A1 0.000201508
20 *2175:A *1796:A 2.49909e-05
21 *426:22 *1796:A 8.23457e-05
22 *535:176 *1741:A1 0.000210902
23 *535:190 *1741:A1 3.72647e-05
24 *535:190 *2174:A 6.04287e-05
25 *537:10 *1741:A1 0
26 *552:62 *1796:A 9.60974e-05
27 *556:20 *1796:A 2.0514e-05
28 *556:31 *1796:A 2.10034e-05
29 *721:25 *1741:A1 4.06946e-05
*RES
1 *2056:Q *1796:A 17.76 
2 *2056:Q *729:30 3.6 
3 *729:30 *1741:A1 12.945 
4 *729:30 *2174:A 5.775 
*END

*D_NET *730 0.00175719
*CONN
*I *2231:A I *D sky130_fd_sc_hd__dlygate4sd3_1
*I *1751:A_N I *D sky130_fd_sc_hd__nand2b_2
*I *2099:Q O *D sky130_fd_sc_hd__dfrtp_2
*CAP
1 *2231:A 0.000170315
2 *1751:A_N 0.000187844
3 *2099:Q 9.68789e-05
4 *730:6 0.000455038
5 *1751:A_N *1751:B 4.82863e-05
6 *1751:A_N *731:72 0
7 *1723:A1 *1751:A_N 4.99619e-05
8 *1723:B1 *1751:A_N 0.000372822
9 *1768:A2 *1751:A_N 0
10 *434:12 *1751:A_N 0.000110804
11 *436:12 *2231:A 0.000112595
12 *689:17 *2231:A 8.74126e-05
13 *689:17 *730:6 6.52347e-05
*RES
1 *2099:Q *730:6 2.74 
2 *730:6 *1751:A_N 11 
3 *730:6 *2231:A 8.465 
*END

*D_NET *731 0.0126659
*CONN
*I *1722:A1 I *D sky130_fd_sc_hd__o31a_2
*I *1721:A1 I *D sky130_fd_sc_hd__o31a_2
*I *1753:B I *D sky130_fd_sc_hd__nand2b_2
*I *1724:A2 I *D sky130_fd_sc_hd__a21oi_2
*I *1751:B I *D sky130_fd_sc_hd__nand2b_2
*I *1723:A2 I *D sky130_fd_sc_hd__a21oi_2
*I *1727:B1 I *D sky130_fd_sc_hd__o21a_2
*I *1728:A1 I *D sky130_fd_sc_hd__a21oi_2
*I *1731:A1 I *D sky130_fd_sc_hd__a21oi_2
*I *1610:A I *D sky130_fd_sc_hd__inv_2
*I *2087:Q O *D sky130_fd_sc_hd__dfstp_2
*CAP
1 *1722:A1 0.000103247
2 *1721:A1 0.000195544
3 *1753:B 0
4 *1724:A2 0
5 *1751:B 0.000161691
6 *1723:A2 2.23868e-05
7 *1727:B1 0
8 *1728:A1 0
9 *1731:A1 0.000259157
10 *1610:A 0.000208711
11 *2087:Q 0
12 *731:124 0.0015591
13 *731:109 0.00151173
14 *731:96 0.000288096
15 *731:72 0.000292057
16 *731:68 0.000397975
17 *731:41 0.000668822
18 *731:29 0.000409666
19 *731:12 0.000594734
20 *731:4 0.000639342
21 *1722:A1 *1621:B1 0
22 *1621:A1 *1722:A1 0.000114492
23 *1621:A2 *1722:A1 7.10578e-05
24 *1720:A2 *1610:A 2.01934e-05
25 *1722:A2 *1722:A1 3.26889e-05
26 *1722:A3 *1722:A1 0.000123225
27 *1723:A1 *1751:B 0.000259517
28 *1723:B1 *1751:B 8.65308e-05
29 *1723:B1 *731:72 0
30 *1723:B1 *731:124 7.32671e-05
31 *1726:B *1610:A 1.29317e-05
32 *1726:B *731:12 1.46781e-05
33 *1726:B *731:41 0.000419373
34 *1728:A2 *1731:A1 0.000117437
35 *1729:A2 *731:41 8.35106e-05
36 *1730:B *731:41 7.20473e-05
37 *1731:A2 *1731:A1 4.20057e-05
38 *1732:A2 *1731:A1 4.36694e-06
39 *1751:A_N *1751:B 4.82863e-05
40 *1751:A_N *731:72 0
41 *1753:A_N *731:124 0.000178946
42 *1757:A0 *731:124 0
43 *1763:B2 *731:124 6.83606e-05
44 *1764:A *731:124 0.000120186
45 *1768:A1 *1751:B 0
46 *1783:A1 *1722:A1 8.99646e-05
47 *1783:A1 *731:124 0.000454707
48 *1790:A *1610:A 4.47202e-05
49 *1832:B *731:68 6.63221e-05
50 *1833:B *731:12 8.41384e-05
51 *1833:B *731:68 2.10905e-05
52 *1949:A *731:124 0
53 *2051:D *731:124 5.2089e-05
54 *2052:D *731:124 6.55328e-05
55 *2052:RESET_B *731:124 0
56 *2053:D *731:124 0.000167724
57 *2053:RESET_B *731:124 5.39718e-05
58 *2057:CLK *731:41 0.000299825
59 *2059:CLK *1721:A1 0.000108031
60 *2059:D *1722:A1 0.000117825
61 *2087:D *1610:A 0.000240149
62 *2087:D *731:12 7.94442e-05
63 *2099:CLK *731:41 1.08758e-05
64 *2099:RESET_B *731:109 3.50571e-05
65 *2156:A *731:12 4.65865e-05
66 *326:6 *1610:A 4.77769e-05
67 *411:8 *1723:A2 2.11084e-05
68 *411:8 *1751:B 1.12578e-05
69 *412:8 *731:68 0.000106002
70 *412:14 *731:12 2.10841e-05
71 *412:14 *731:68 3.0933e-05
72 *435:12 *731:124 0.00012398
73 *436:12 *731:124 0
74 *437:23 *731:124 0
75 *442:10 *731:124 0.000158643
76 *535:15 *1722:A1 3.35508e-05
77 *535:15 *731:124 0.00021631
78 *535:33 *731:124 4.20744e-05
79 *544:40 *1610:A 0.000282416
80 *544:42 *731:41 7.37657e-05
81 *550:12 *731:124 0
82 *550:14 *731:124 0
83 *550:36 *731:109 2.69217e-05
84 *550:36 *731:124 9.32375e-05
85 *680:10 *731:12 2.14363e-05
86 *680:14 *731:12 2.74491e-05
87 *712:42 *731:124 0
88 *723:8 *1731:A1 3.1562e-06
89 *726:8 *1721:A1 1.1392e-05
*RES
1 *2087:Q *731:4 1.6 
2 *731:4 *731:12 9.095 
3 *731:12 *1610:A 9.135 
4 *731:12 *731:29 2 
5 *731:29 *731:41 12.505 
6 *731:41 *1731:A1 5.455 
7 *731:41 *1728:A1 1.6 
8 *731:29 *1727:B1 1.6 
9 *731:4 *731:68 6.59 
10 *731:68 *731:72 3.635 
11 *731:72 *1723:A2 2.05 
12 *731:72 *1751:B 6.085 
13 *731:68 *731:96 0.615 
14 *731:96 *1724:A2 3.6 
15 *731:96 *731:109 6.38 
16 *731:109 *1753:B 1.6 
17 *731:109 *731:124 30.41 
18 *731:124 *1721:A1 6.48 
19 *731:124 *1722:A1 7.5 
*END

*D_NET *732 0.00106993
*CONN
*I *1758:A2 I *D sky130_fd_sc_hd__a22o_2
*I *1774:B1_N I *D sky130_fd_sc_hd__a21boi_2
*I *1719:C I *D sky130_fd_sc_hd__and3_2
*I *2088:Q O *D sky130_fd_sc_hd__dfrtp_2
*CAP
1 *1758:A2 9.36816e-05
2 *1774:B1_N 0
3 *1719:C 0.000115979
4 *2088:Q 0.000208417
5 *732:22 0.00018612
6 *1719:A *1719:C 8.65905e-05
7 *1719:B *1719:C 2.20732e-05
8 *1719:B *732:22 4.82863e-05
9 *1758:A1 *1758:A2 2.66362e-05
10 *1760:A2 *1758:A2 3.64998e-06
11 *413:31 *732:22 0.000116853
12 *544:34 *1758:A2 7.00066e-05
13 *544:34 *732:22 9.16315e-05
14 *555:84 *1758:A2 0
15 *555:86 *1758:A2 0
16 *555:86 *732:22 0
*RES
1 *2088:Q *1719:C 4.685 
2 *2088:Q *732:22 5.94 
3 *732:22 *1774:B1_N 3.6 
4 *732:22 *1758:A2 5.49 
*END

*D_NET *733 0.00499392
*CONN
*I *2242:A I *D sky130_fd_sc_hd__dlygate4sd3_1
*I *1613:A I *D sky130_fd_sc_hd__inv_2
*I *1708:D I *D sky130_fd_sc_hd__and4b_2
*I *1706:D I *D sky130_fd_sc_hd__and4b_2
*I *2089:Q O *D sky130_fd_sc_hd__dfrtp_2
*CAP
1 *2242:A 0.000284847
2 *1613:A 3.92282e-05
3 *1708:D 2.687e-05
4 *1706:D 0.000335083
5 *2089:Q 0.000181982
6 *733:20 0.000662966
7 *733:16 0.000599504
8 *733:8 0.000726091
9 *1706:D *1708:A_N 0.000104132
10 *1708:D *739:26 2.10214e-05
11 *733:20 *1786:A1 1.84712e-05
12 *1606:A *733:20 7.01359e-05
13 *1706:B *1706:D 0.000102814
14 *1706:B *733:20 6.22925e-05
15 *1706:C *1706:D 6.33103e-05
16 *1707:B *1706:D 1.79483e-05
17 *1707:B *733:20 0.000128796
18 *1708:C *1708:D 4.66108e-05
19 *1728:B1 *1708:D 4.56204e-05
20 *1759:A_N *1613:A 7.26348e-05
21 *1759:A_N *733:16 0.000275542
22 *1771:A *2242:A 2.93136e-05
23 *1781:A_N *2242:A 2.04531e-05
24 *1785:B1 *1706:D 3.80768e-05
25 *1786:B1 *733:20 5.7344e-05
26 *1788:B1 *733:16 0
27 *1788:B1 *733:20 0.000155227
28 *1887:C1 *2242:A 0
29 *2063:RESET_B *733:16 1.08758e-05
30 *2086:CLK *2242:A 0
31 *2086:D *2242:A 7.63125e-05
32 *2089:D *733:20 0.000129376
33 *2089:RESET_B *733:8 0.000120741
34 *325:10 *2242:A 0
35 *329:12 *1706:D 0.000169472
36 *329:12 *733:20 0
37 *413:41 *2242:A 0.000153434
38 *413:41 *733:16 0.000132713
39 *545:10 *2242:A 0
40 *705:10 *733:16 1.46828e-05
*RES
1 *2089:Q *733:8 5.775 
2 *733:8 *733:16 7.88 
3 *733:16 *733:20 8.225 
4 *733:20 *1706:D 9.02433 
5 *733:20 *1708:D 4.395 
6 *733:16 *1613:A 2.395 
7 *733:8 *2242:A 9.315 
*END

*D_NET *734 0.00543971
*CONN
*I *1621:A3 I *D sky130_fd_sc_hd__a31o_2
*I *1623:A2 I *D sky130_fd_sc_hd__a31o_2
*I *1615:A I *D sky130_fd_sc_hd__inv_2
*I *1622:B I *D sky130_fd_sc_hd__nand2_2
*I *1620:B I *D sky130_fd_sc_hd__nand2_2
*I *1841:A I *D sky130_fd_sc_hd__and2_2
*I *2090:Q O *D sky130_fd_sc_hd__dfrtp_2
*CAP
1 *1621:A3 0
2 *1623:A2 0
3 *1615:A 0.000147282
4 *1622:B 0.000154878
5 *1620:B 0.000108468
6 *1841:A 0.000104819
7 *2090:Q 0.000141227
8 *734:71 0.000284595
9 *734:63 0.00019305
10 *734:44 0.000550022
11 *734:12 0.000469681
12 *734:8 0.000737027
13 *1622:B *1621:B1 0.000249935
14 *734:63 *1621:B1 0.000116853
15 *734:71 *1621:B1 4.82919e-05
16 *734:71 *1623:B1 4.99619e-05
17 *1620:A *1620:B 7.23602e-05
18 *1621:A2 *1841:A 0
19 *1621:A2 *734:12 0.000201508
20 *1623:A1 *1622:B 4.41506e-05
21 *1623:A1 *734:44 5.83121e-06
22 *1623:A3 *1615:A 2.16833e-05
23 *1623:A3 *734:71 1.08758e-05
24 *1722:A3 *734:8 7.47215e-05
25 *1783:A2 *734:8 0.000273001
26 *1798:A2 *1620:B 0.000123955
27 *1798:B1 *734:44 0.000198939
28 *1841:B *1841:A 6.56861e-05
29 *1841:B *734:12 9.27255e-06
30 *2103:RESET_B *1622:B 0
31 *2223:A *1841:A 4.77757e-05
32 *13:14 *1620:B 7.83157e-05
33 *331:6 *734:71 9.80032e-06
34 *335:10 *1615:A 4.85494e-05
35 *335:10 *734:71 0.000217861
36 *337:12 *1622:B 0
37 *341:31 *1622:B 8.98913e-05
38 *535:6 *734:44 9.49335e-08
39 *535:13 *734:44 3.42478e-05
40 *535:15 *734:8 0.000113589
41 *535:15 *734:44 2.25075e-05
42 *708:10 *1620:B 5.53249e-06
43 *708:16 *1620:B 0.000113698
44 *708:16 *734:12 8.95933e-05
45 *727:40 *734:44 6.52265e-05
46 *727:40 *734:63 4.49498e-05
*RES
1 *2090:Q *734:8 7.785 
2 *734:8 *734:12 5.555 
3 *734:12 *1841:A 3.7 
4 *734:12 *1620:B 8.675 
5 *734:8 *734:44 6.77 
6 *734:44 *1622:B 9.305 
7 *734:44 *734:63 5.38 
8 *734:63 *734:71 3.69 
9 *734:71 *1615:A 3.7 
10 *734:71 *1623:A2 1.6 
11 *734:63 *1621:A3 1.6 
*END

*D_NET *735 0.0045781
*CONN
*I *1626:B I *D sky130_fd_sc_hd__and3_2
*I *1788:A1 I *D sky130_fd_sc_hd__a221o_2
*I *1625:A I *D sky130_fd_sc_hd__nand2_2
*I *1758:B1 I *D sky130_fd_sc_hd__a22o_2
*I *1759:B I *D sky130_fd_sc_hd__nand3b_2
*I *1712:A2 I *D sky130_fd_sc_hd__a31o_2
*I *2091:Q O *D sky130_fd_sc_hd__dfrtp_2
*CAP
1 *1626:B 0.000181392
2 *1788:A1 0.000424689
3 *1625:A 0
4 *1758:B1 1.8783e-05
5 *1759:B 1.71042e-05
6 *1712:A2 9.23636e-05
7 *2091:Q 0.000449844
8 *735:63 0.00067958
9 *735:52 0.000231829
10 *735:14 0.000295317
11 *735:10 0.000496146
12 *1712:A2 *1712:A3 4.87406e-05
13 *1712:A2 *1759:C 2.68526e-05
14 *1759:B *1758:B2 9.13949e-06
15 *1759:B *1759:C 5.12969e-06
16 *735:14 *1758:B2 0.000273369
17 *735:14 *1759:C 2.10152e-05
18 *1760:A3 *1758:B1 2.75229e-05
19 *1760:A3 *735:10 0.00031682
20 *1760:A3 *735:14 1.12578e-05
21 *1788:A2 *1788:A1 8.64421e-05
22 *1788:B1 *1788:A1 2.86975e-05
23 *1788:B2 *1788:A1 2.48591e-05
24 *1788:C1 *1626:B 5.83477e-05
25 *1788:C1 *1788:A1 0.000199687
26 *1978:A *735:10 1.08129e-05
27 *1978:A *735:52 0
28 *2085:CLK *735:52 3.72916e-05
29 *2091:RESET_B *735:10 9.71067e-05
30 *535:33 *735:63 2.55402e-05
31 *544:34 *735:10 2.42236e-05
32 *555:80 *735:10 0
33 *555:80 *735:52 0.000115254
34 *555:80 *735:63 0.000130488
35 *681:50 *1788:A1 0.000112457
36 *681:50 *735:63 0
*RES
1 *2091:Q *735:10 11.57 
2 *735:10 *735:14 3.57 
3 *735:14 *1712:A2 7.175 
4 *735:14 *1759:B 1.96 
5 *735:10 *1758:B1 2.05 
6 *2091:Q *735:52 6.12 
7 *735:52 *1625:A 3.6 
8 *735:52 *735:63 3.635 
9 *735:63 *1788:A1 12.14 
10 *735:63 *1626:B 3.775 
*END

*D_NET *736 0.00181895
*CONN
*I *2228:A I *D sky130_fd_sc_hd__dlygate4sd3_1
*I *1626:C I *D sky130_fd_sc_hd__and3_2
*I *1625:B I *D sky130_fd_sc_hd__nand2_2
*I *2085:Q O *D sky130_fd_sc_hd__dfrtp_2
*CAP
1 *2228:A 0
2 *1626:C 0.000144949
3 *1625:B 5.96698e-05
4 *2085:Q 7.08897e-05
5 *736:12 0.000389778
6 *736:10 0.000256049
7 *1760:B1 *1626:C 0.000110074
8 *1769:B1 *736:10 0
9 *1781:A_N *736:12 4.66108e-05
10 *1788:A2 *1626:C 2.02618e-05
11 *1974:A *736:10 8.41015e-06
12 *2085:D *1625:B 4.41506e-05
13 *2085:RESET_B *1626:C 0
14 *445:18 *1625:B 0.000156774
15 *445:18 *736:12 0.000454007
16 *681:32 *736:10 5.73236e-05
*RES
1 *2085:Q *736:10 6.98 
2 *736:10 *736:12 4.245 
3 *736:12 *1625:B 3.085 
4 *736:12 *1626:C 8.255 
5 *736:10 *2228:A 1.6 
*END

*D_NET *737 0.00340545
*CONN
*I *2230:A I *D sky130_fd_sc_hd__dlygate4sd3_1
*I *1758:B2 I *D sky130_fd_sc_hd__a22o_2
*I *1759:C I *D sky130_fd_sc_hd__nand3b_2
*I *1712:A3 I *D sky130_fd_sc_hd__a31o_2
*I *2086:Q O *D sky130_fd_sc_hd__dfrtp_2
*CAP
1 *2230:A 0.000534532
2 *1758:B2 7.39964e-05
3 *1759:C 7.89506e-05
4 *1712:A3 0.000181239
5 *2086:Q 0.000749221
6 *737:23 0.000152947
7 *737:10 0.000395928
8 *1712:A1 *1712:A3 4.77719e-05
9 *1712:A2 *1712:A3 4.87406e-05
10 *1712:A2 *1759:C 2.68526e-05
11 *1759:A_N *1759:C 5.12969e-06
12 *1759:B *1758:B2 9.13949e-06
13 *1759:B *1759:C 5.12969e-06
14 *1760:A3 *1758:B2 0.000117376
15 *1978:A *2230:A 0.000107716
16 *2085:CLK *2230:A 0.000332216
17 *2086:RESET_B *2230:A 2.30184e-05
18 *2141:A *737:10 0.000135002
19 *413:31 *1712:A3 7.27003e-05
20 *545:29 *2230:A 1.34594e-05
21 *735:14 *1758:B2 0.000273369
22 *735:14 *1759:C 2.10152e-05
*RES
1 *2086:Q *737:10 7.47 
2 *737:10 *1712:A3 6.63 
3 *737:10 *737:23 2 
4 *737:23 *1759:C 3.1 
5 *737:23 *1758:B2 4.48 
6 *2086:Q *2230:A 14.97 
*END

*D_NET *738 0.00311369
*CONN
*I *1785:A1 I *D sky130_fd_sc_hd__o21a_2
*I *1707:A I *D sky130_fd_sc_hd__nor2_2
*I *1706:A_N I *D sky130_fd_sc_hd__and4b_2
*I *2064:Q O *D sky130_fd_sc_hd__dfrtp_2
*CAP
1 *1785:A1 2.45313e-05
2 *1707:A 0.000168959
3 *1706:A_N 9.10566e-05
4 *2064:Q 0.000243672
5 *738:29 0.000394083
6 *738:10 0.000535321
7 *1706:A_N *1708:A_N 3.25525e-05
8 *1785:A1 *1708:A_N 3.57349e-05
9 *738:29 *1708:A_N 4.66108e-05
10 *1707:B *1707:A 4.63015e-05
11 *1785:A2 *738:29 8.2126e-05
12 *1785:B1 *738:10 1.10359e-05
13 *1785:B1 *738:29 6.33194e-05
14 *1786:B1 *1707:A 4.82919e-05
15 *1787:A *738:29 4.66108e-05
16 *1787:B *1707:A 0.000107684
17 *1787:B *738:29 6.46447e-05
18 *1855:B1 *738:10 5.94591e-05
19 *1952:A *1707:A 6.63219e-06
20 *2155:A *738:10 0.000119873
21 *329:12 *1707:A 0.000181376
22 *402:8 *1707:A 0.000307411
23 *677:10 *738:10 0.000151604
24 *677:10 *738:29 7.27704e-06
25 *677:27 *738:29 6.7327e-05
26 *678:16 *1706:A_N 1.79174e-05
27 *705:12 *1707:A 0
28 *705:16 *738:29 2.92496e-05
29 *705:22 *738:29 5.06162e-05
30 *705:57 *1707:A 6.97129e-05
31 *724:12 *738:10 2.69443e-06
*RES
1 *2064:Q *738:10 8.355 
2 *738:10 *1706:A_N 5.085 
3 *738:10 *738:29 6.695 
4 *738:29 *1707:A 10.97 
5 *738:29 *1785:A1 2.05 
*END

*D_NET *739 0.00225441
*CONN
*I *1709:A I *D sky130_fd_sc_hd__nor2_2
*I *1786:A1 I *D sky130_fd_sc_hd__o21a_2
*I *1708:A_N I *D sky130_fd_sc_hd__and4b_2
*I *2065:Q O *D sky130_fd_sc_hd__dfrtp_2
*CAP
1 *1709:A 6.88489e-05
2 *1786:A1 8.20664e-05
3 *1708:A_N 0.000397849
4 *2065:Q 0.000317507
5 *739:26 0.000231257
6 *1606:A *1786:A1 8.30853e-06
7 *1706:A_N *1708:A_N 3.25525e-05
8 *1706:B *739:26 4.66108e-05
9 *1706:D *1708:A_N 0.000104132
10 *1707:B *1786:A1 9.03138e-05
11 *1708:C *739:26 0.000118081
12 *1708:D *739:26 2.10214e-05
13 *1709:B *1709:A 3.38272e-05
14 *1728:B1 *1709:A 2.14569e-05
15 *1785:A1 *1708:A_N 3.57349e-05
16 *1785:A2 *1708:A_N 4.66108e-05
17 *1785:B1 *1708:A_N 0.000116165
18 *322:14 *1709:A 0.000122801
19 *322:14 *1786:A1 2.30258e-05
20 *322:14 *739:26 7.14699e-05
21 *329:12 *1708:A_N 5.38986e-06
22 *678:16 *1708:A_N 0.000194299
23 *733:20 *1786:A1 1.84712e-05
24 *738:29 *1708:A_N 4.66108e-05
*RES
1 *2065:Q *1708:A_N 12.585 
2 *1708:A_N *739:26 3.43 
3 *739:26 *1786:A1 7.235 
4 *739:26 *1709:A 3.445 
*END

*D_NET *740 0.00378246
*CONN
*I *1649:A I *D sky130_fd_sc_hd__and3_2
*I *1651:A I *D sky130_fd_sc_hd__nand4_2
*I *2192:A I *D sky130_fd_sc_hd__dlygate4sd3_1
*I *1803:A1 I *D sky130_fd_sc_hd__a21oi_2
*I *2105:Q O *D sky130_fd_sc_hd__dfrtp_2
*CAP
1 *1649:A 0.000247201
2 *1651:A 2.08101e-05
3 *2192:A 0.000213903
4 *1803:A1 0.000154103
5 *2105:Q 3.79888e-05
6 *740:44 0.000418814
7 *740:25 0.000424889
8 *740:8 0.000252275
9 *1649:A *1649:B 1.52418e-05
10 *1649:A *2221:A 0.000285543
11 *1649:A *747:25 3.09233e-05
12 *1803:A1 *1803:A2 0.00015789
13 *2192:A *1803:A2 5.83121e-06
14 *740:25 *1803:A2 9.76522e-05
15 *1803:B1 *1803:A1 8.02311e-05
16 *1804:B *1649:A 4.80285e-05
17 *1804:B *740:44 2.49909e-05
18 *1913:B1 *2192:A 1.93765e-05
19 *1913:B1 *740:25 1.10631e-05
20 *1913:B1 *740:44 3.1595e-05
21 *2040:D *740:44 0.000152071
22 *2106:CLK *2192:A 5.30673e-05
23 *2106:D *2192:A 2.49909e-05
24 *2106:D *740:44 6.55406e-05
25 *2107:D *1649:A 4.82919e-05
26 *535:296 *740:8 1.23414e-06
27 *535:313 *740:8 1.31549e-05
28 *548:58 *1803:A1 8.41384e-05
29 *549:40 *1649:A 8.5225e-05
30 *685:51 *740:44 1.19928e-05
31 *688:60 *1803:A1 6.98643e-05
32 *688:60 *740:25 0.00021767
33 *688:60 *740:44 0.000376867
*RES
1 *2105:Q *740:8 4.05 
2 *740:8 *1803:A1 7.02 
3 *740:8 *740:25 2.5275 
4 *740:25 *2192:A 7.1475 
5 *740:25 *740:44 7.1075 
6 *740:44 *1651:A 1.96 
7 *740:44 *1649:A 10.805 
*END

*D_NET *741 0.00265222
*CONN
*I *1654:A I *D sky130_fd_sc_hd__or3b_2
*I *2211:A I *D sky130_fd_sc_hd__dlygate4sd3_1
*I *1822:A1 I *D sky130_fd_sc_hd__a21oi_2
*I *1821:A I *D sky130_fd_sc_hd__and3_2
*I *2115:Q O *D sky130_fd_sc_hd__dfrtp_2
*CAP
1 *1654:A 0.000115836
2 *2211:A 0.000120858
3 *1822:A1 0.000123867
4 *1821:A 0.000195001
5 *2115:Q 0
6 *741:21 0.000244725
7 *741:19 0.000284672
8 *741:6 0.000363837
9 *1654:A *1654:B 8.71079e-05
10 *1654:A *755:19 4.43871e-06
11 *741:19 *1654:B 8.46935e-05
12 *741:19 *742:23 0.000107685
13 *1820:A *1822:A1 4.82919e-05
14 *1820:A *741:19 7.65612e-05
15 *1822:B1 *1822:A1 8.65905e-05
16 *1822:B1 *2211:A 0.000158965
17 *1823:A *1821:A 4.99619e-05
18 *1823:B *1821:A 0.000313954
19 *1823:B *741:19 2.98587e-05
20 *2116:D *1821:A 6.76976e-05
21 *2142:A *1654:A 0
22 *2190:A *1822:A1 1.08758e-05
23 *535:233 *1821:A 0
24 *535:285 *2211:A 0
25 *535:290 *1822:A1 6.20088e-05
26 *535:290 *2211:A 1.47347e-05
27 *539:35 *1821:A 0
28 *696:53 *1654:A 0
*RES
1 *2115:Q *741:6 3.6 
2 *741:6 *1821:A 8.325 
3 *741:6 *741:19 4.44 
4 *741:19 *741:21 2 
5 *741:21 *1822:A1 4.135 
6 *741:21 *2211:A 3.79 
7 *741:19 *1654:A 6 
*END

*D_NET *742 0.00359443
*CONN
*I *1654:B I *D sky130_fd_sc_hd__or3b_2
*I *2189:A I *D sky130_fd_sc_hd__dlygate4sd3_1
*I *1821:B I *D sky130_fd_sc_hd__and3_2
*I *2116:Q O *D sky130_fd_sc_hd__dfrtp_2
*CAP
1 *1654:B 0.000152355
2 *2189:A 0.000161006
3 *1821:B 0.000275808
4 *2116:Q 0.000346219
5 *742:23 0.000510861
6 *742:8 0.000819527
7 *1654:A *1654:B 8.71079e-05
8 *1822:B1 *1654:B 6.20861e-05
9 *1822:B1 *2189:A 4.51928e-05
10 *1823:A *1821:B 1.61831e-05
11 *1823:B *1821:B 7.23602e-05
12 *1823:B *742:23 0.000196144
13 *2115:D *2189:A 0.000269339
14 *2116:D *1821:B 0.000196376
15 *2116:RESET_B *742:8 3.97285e-05
16 *535:233 *742:23 0
17 *696:38 *2189:A 0.000151761
18 *696:53 *1654:B 0
19 *741:19 *1654:B 8.46935e-05
20 *741:19 *742:23 0.000107685
*RES
1 *2116:Q *742:8 7.5 
2 *742:8 *1821:B 7.44 
3 *742:8 *742:23 4.695 
4 *742:23 *2189:A 7.845 
5 *742:23 *1654:B 7.275 
*END

*D_NET *743 0.00296853
*CONN
*I *1825:B I *D sky130_fd_sc_hd__and3_2
*I *2218:A I *D sky130_fd_sc_hd__dlygate4sd3_1
*I *1655:B I *D sky130_fd_sc_hd__or4_2
*I *2251:A I *D sky130_fd_sc_hd__dlygate4sd3_1
*I *2117:Q O *D sky130_fd_sc_hd__dfrtp_2
*CAP
1 *1825:B 0.000320708
2 *2218:A 0
3 *1655:B 0.000137379
4 *2251:A 0.000234627
5 *2117:Q 0.000240309
6 *743:32 0.000451228
7 *743:21 0.000369181
8 *743:8 0.000576218
9 *1655:B *1655:D 0.000194299
10 *1825:B *1825:A 2.65814e-06
11 *2251:A *1655:C 0
12 *2251:A *2188:A 0
13 *743:32 *1825:A 0
14 *1824:B *2251:A 0
15 *1825:C *1825:B 0.000171509
16 *1825:C *743:32 8.57257e-05
17 *1826:A2 *2251:A 0
18 *2117:RESET_B *743:21 6.06374e-05
19 *2117:RESET_B *743:32 6.64896e-05
20 *366:10 *1825:B 0
21 *367:12 *1825:B 0
22 *466:8 *2251:A 2.75229e-05
23 *676:10 *1825:B 0
24 *685:41 *1825:B 0
25 *688:27 *2251:A 3.00381e-05
*RES
1 *2117:Q *743:8 6.12 
2 *743:8 *2251:A 7.47 
3 *743:8 *743:21 2.145 
4 *743:21 *1655:B 5.43 
5 *743:21 *743:32 2.655 
6 *743:32 *2218:A 3.6 
7 *743:32 *1825:B 9.345 
*END

*D_NET *744 0.00216531
*CONN
*I *1825:A I *D sky130_fd_sc_hd__and3_2
*I *1655:A I *D sky130_fd_sc_hd__or4_2
*I *2188:A I *D sky130_fd_sc_hd__dlygate4sd3_1
*I *2118:Q O *D sky130_fd_sc_hd__dfrtp_2
*CAP
1 *1825:A 0.000570767
2 *1655:A 0
3 *2188:A 0.000110269
4 *2118:Q 0
5 *744:21 0.000777494
6 *744:6 0.000316996
7 *1825:A *1655:D 2.14852e-05
8 *2188:A *1655:C 4.75021e-05
9 *744:21 *1655:C 0.000105608
10 *1825:B *1825:A 2.65814e-06
11 *2007:A *2188:A 0.000104681
12 *2117:RESET_B *1825:A 9.33213e-05
13 *2251:A *2188:A 0
14 *366:10 *1825:A 0
15 *366:10 *744:21 5.83121e-06
16 *676:10 *1825:A 3.64998e-06
17 *687:18 *1825:A 5.05066e-06
18 *743:32 *1825:A 0
*RES
1 *2118:Q *744:6 3.6 
2 *744:6 *2188:A 6.255 
3 *744:6 *744:21 6.125 
4 *744:21 *1655:A 1.6 
5 *744:21 *1825:A 14.39 
*END

*D_NET *745 0.00339803
*CONN
*I *1828:A I *D sky130_fd_sc_hd__nand2_2
*I *1655:C I *D sky130_fd_sc_hd__or4_2
*I *2202:A I *D sky130_fd_sc_hd__dlygate4sd3_1
*I *2119:Q O *D sky130_fd_sc_hd__dfrtp_2
*CAP
1 *1828:A 0.00038999
2 *1655:C 0.00082282
3 *2202:A 8.96055e-05
4 *2119:Q 0.000430281
5 *745:6 0.000952715
6 *1830:B *1828:A 0.000128537
7 *2117:D *1655:C 8.37327e-05
8 *2117:RESET_B *1655:C 1.82571e-05
9 *2118:CLK *1655:C 1.34993e-05
10 *2118:CLK *1828:A 0.00026365
11 *2118:CLK *745:6 3.55992e-06
12 *2118:RESET_B *1655:C 1.32907e-06
13 *2119:CLK *1828:A 3.5678e-06
14 *2119:D *1828:A 2.49909e-05
15 *2188:A *1655:C 4.75021e-05
16 *2251:A *1655:C 0
17 *548:36 *1828:A 1.83847e-05
18 *744:21 *1655:C 0.000105608
*RES
1 *2119:Q *745:6 2.05 
2 *745:6 *2202:A 6.98 
3 *745:6 *1655:C 16.955 
4 *2119:Q *1828:A 11.255 
*END

*D_NET *746 0.00142118
*CONN
*I *1655:D I *D sky130_fd_sc_hd__or4_2
*I *2176:A I *D sky130_fd_sc_hd__dlygate4sd3_1
*I *2120:Q O *D sky130_fd_sc_hd__dfrtp_2
*CAP
1 *1655:D 0.00039394
2 *2176:A 2.09808e-05
3 *2120:Q 0.000187779
4 *746:12 0.000602701
5 *1655:B *1655:D 0.000194299
6 *1825:A *1655:D 2.14852e-05
*RES
1 *2120:Q *746:12 8.21 
2 *746:12 *2176:A 1.96 
3 *746:12 *1655:D 7.84 
*END

*D_NET *747 0.00373514
*CONN
*I *1649:B I *D sky130_fd_sc_hd__and3_2
*I *2221:A I *D sky130_fd_sc_hd__dlygate4sd3_1
*I *1651:B I *D sky130_fd_sc_hd__nand4_2
*I *1803:A2 I *D sky130_fd_sc_hd__a21oi_2
*I *2106:Q O *D sky130_fd_sc_hd__dfrtp_2
*CAP
1 *1649:B 0.000133169
2 *2221:A 0.000254149
3 *1651:B 0
4 *1803:A2 0.000487996
5 *2106:Q 0.000245632
6 *747:25 0.00033872
7 *747:6 0.000951367
8 *1649:B *1649:C 3.55642e-06
9 *2221:A *1651:C 0.000157595
10 *747:25 *1651:C 9.50342e-06
11 *1649:A *1649:B 1.52418e-05
12 *1649:A *2221:A 0.000285543
13 *1649:A *747:25 3.09233e-05
14 *1803:A1 *1803:A2 0.00015789
15 *1806:B *747:25 0
16 *1913:B1 *1803:A2 0.000185411
17 *2106:RESET_B *747:6 3.3818e-05
18 *2107:D *747:25 0.000103974
19 *2120:D *1803:A2 4.28112e-06
20 *2192:A *1803:A2 5.83121e-06
21 *535:313 *1803:A2 2.43569e-05
22 *548:58 *1803:A2 9.19853e-05
23 *549:12 *747:25 8.26527e-05
24 *549:40 *2221:A 9.3062e-06
25 *549:40 *747:25 5.11148e-06
26 *687:36 *747:25 0
27 *688:60 *1803:A2 1.94753e-05
28 *740:25 *1803:A2 9.76522e-05
*RES
1 *2106:Q *747:6 4.465 
2 *747:6 *1803:A2 13.625 
3 *747:6 *747:25 6.95 
4 *747:25 *1651:B 3.6 
5 *747:25 *2221:A 6.975 
6 *2221:A *1649:B 4.955 
*END

*D_NET *748 0.00203957
*CONN
*I *1649:C I *D sky130_fd_sc_hd__and3_2
*I *1651:D I *D sky130_fd_sc_hd__nand4_2
*I *2219:A I *D sky130_fd_sc_hd__dlygate4sd3_1
*I *2107:Q O *D sky130_fd_sc_hd__dfrtp_2
*CAP
1 *1649:C 0.000210911
2 *1651:D 0.00010071
3 *2219:A 0.000135013
4 *2107:Q 4.48875e-05
5 *748:21 0.000430257
6 *748:8 0.000298536
7 *1649:B *1649:C 3.55642e-06
8 *1804:B *1651:D 5.58286e-05
9 *2106:RESET_B *2219:A 0.000160314
10 *2107:D *1651:D 8.64421e-05
11 *2107:RESET_B *1651:D 2.49909e-05
12 *2107:RESET_B *748:21 0.000157097
13 *685:51 *1651:D 8.65539e-05
14 *687:36 *1649:C 0.00014483
15 *687:36 *2219:A 6.05715e-05
16 *687:36 *748:21 3.90659e-05
*RES
1 *2107:Q *748:8 4.05 
2 *748:8 *2219:A 6.465 
3 *748:8 *748:21 2.655 
4 *748:21 *1651:D 6.135 
5 *748:21 *1649:C 6.975 
*END

*D_NET *749 0.00348223
*CONN
*I *1650:A I *D sky130_fd_sc_hd__and2_2
*I *2204:A I *D sky130_fd_sc_hd__dlygate4sd3_1
*I *1651:C I *D sky130_fd_sc_hd__nand4_2
*I *2108:Q O *D sky130_fd_sc_hd__dfrtp_2
*CAP
1 *1650:A 0.000214292
2 *2204:A 0.000190018
3 *1651:C 0.000258494
4 *2108:Q 0.000269637
5 *749:21 0.000527215
6 *749:8 0.000651038
7 *1650:A *2121:D 3.43386e-05
8 *749:21 *2121:D 5.72004e-05
9 *1650:B *1650:A 0.000274346
10 *1804:B *1651:C 8.60799e-05
11 *1805:A *2204:A 4.98818e-05
12 *1806:B *1651:C 0.00014116
13 *1931:C *1650:A 0.000162531
14 *2107:D *1651:C 5.2397e-05
15 *2108:RESET_B *749:8 0.00016063
16 *2109:CLK *749:8 8.34281e-06
17 *2109:D *1651:C 2.46089e-05
18 *2109:D *749:8 4.66108e-05
19 *2109:D *749:21 7.21296e-06
20 *2121:SET_B *1650:A 1.09141e-05
21 *2221:A *1651:C 0.000157595
22 *360:21 *1651:C 0
23 *360:21 *2204:A 8.818e-05
24 *360:21 *749:21 0
25 *549:40 *1651:C 0
26 *549:40 *749:21 0
27 *549:55 *1650:A 0
28 *549:55 *749:21 0
29 *747:25 *1651:C 9.50342e-06
*RES
1 *2108:Q *749:8 6.81 
2 *749:8 *1651:C 9.855 
3 *749:8 *749:21 2.4 
4 *749:21 *2204:A 6.825 
5 *749:21 *1650:A 8.595 
*END

*D_NET *750 0.00301349
*CONN
*I *1807:A1 I *D sky130_fd_sc_hd__a21oi_2
*I *1808:B I *D sky130_fd_sc_hd__and3_2
*I *1835:A2 I *D sky130_fd_sc_hd__a311o_2
*I *1834:B I *D sky130_fd_sc_hd__nor3_2
*I *1652:B I *D sky130_fd_sc_hd__nand2b_2
*I *2247:A I *D sky130_fd_sc_hd__dlygate4sd3_1
*I *2109:Q O *D sky130_fd_sc_hd__dfrtp_2
*CAP
1 *1807:A1 0
2 *1808:B 7.33909e-05
3 *1835:A2 0
4 *1834:B 7.81371e-05
5 *1652:B 7.94236e-05
6 *2247:A 0
7 *2109:Q 0.000197657
8 *750:35 0.000204621
9 *750:31 0.000184189
10 *750:23 0.000265062
11 *750:19 0.0001312
12 *750:12 0.000274314
13 *1652:B *1652:A_N 4.67407e-05
14 *1652:B *1834:C 8.53113e-06
15 *1652:B *752:26 6.14516e-05
16 *1834:B *1834:A 5.83121e-06
17 *1834:B *1834:C 4.77719e-05
18 *1834:B *751:16 3.48309e-05
19 *750:19 *1807:B1 0.000160342
20 *750:23 *1807:B1 3.90495e-05
21 *750:31 *751:14 6.99988e-05
22 *750:35 *1835:A1 3.26889e-05
23 *750:35 *1835:A3 4.66108e-05
24 *750:35 *751:16 0.000196376
25 *1659:B *750:31 0.000222806
26 *1659:C *750:31 0.000182342
27 *1808:C *1808:B 0.000124007
28 *1808:C *750:23 1.16578e-05
29 *1835:C1 *1834:B 1.16578e-05
30 *1835:C1 *750:35 8.1087e-05
31 *459:43 *1808:B 4.00541e-06
32 *687:47 *750:12 0.000137709
*RES
1 *2109:Q *750:12 9.065 
2 *750:12 *2247:A 1.6 
3 *750:12 *750:19 1.83 
4 *750:19 *750:23 1.155 
5 *750:23 *750:31 8.035 
6 *750:31 *750:35 2.19 
7 *750:35 *1652:B 7.49 
8 *750:35 *1834:B 3.1 
9 *750:31 *1835:A2 1.6 
10 *750:23 *1808:B 3.355 
11 *750:19 *1807:A1 1.6 
*END

*D_NET *751 0.00348768
*CONN
*I *1808:A I *D sky130_fd_sc_hd__and3_2
*I *1807:B1 I *D sky130_fd_sc_hd__a21oi_2
*I *1835:A1 I *D sky130_fd_sc_hd__a311o_2
*I *1652:A_N I *D sky130_fd_sc_hd__nand2b_2
*I *1834:A I *D sky130_fd_sc_hd__nor3_2
*I *2110:Q O *D sky130_fd_sc_hd__dfrtp_2
*CAP
1 *1808:A 0
2 *1807:B1 0.000170149
3 *1835:A1 2.01858e-05
4 *1652:A_N 0.000103296
5 *1834:A 8.97185e-05
6 *2110:Q 0.000103459
7 *751:49 0.00019484
8 *751:16 0.000289509
9 *751:14 0.00033334
10 *751:8 0.000344809
11 *751:16 *1834:C 4.94474e-05
12 *1652:B *1652:A_N 4.67407e-05
13 *1659:C *751:14 0.000227536
14 *1808:C *1807:B1 4.77807e-05
15 *1808:C *751:49 3.63576e-05
16 *1809:A *751:8 7.28465e-06
17 *1809:A *751:14 6.24855e-05
18 *1811:B *751:8 8.19541e-05
19 *1834:B *1834:A 5.83121e-06
20 *1834:B *751:16 3.48309e-05
21 *1835:B1 *1835:A1 3.26889e-05
22 *1835:B1 *751:14 1.08758e-05
23 *1835:C1 *751:14 1.19928e-05
24 *1835:C1 *751:16 1.34503e-05
25 *1836:B *751:14 0.000131
26 *361:12 *751:8 0.000137071
27 *361:12 *751:14 1.46781e-05
28 *362:26 *1834:A 7.82423e-05
29 *362:26 *751:16 0.000259643
30 *459:10 *751:8 5.00317e-05
31 *750:19 *1807:B1 0.000160342
32 *750:23 *1807:B1 3.90495e-05
33 *750:31 *751:14 6.99988e-05
34 *750:35 *1835:A1 3.26889e-05
35 *750:35 *751:16 0.000196376
*RES
1 *2110:Q *751:8 6.765 
2 *751:8 *751:14 7.4 
3 *751:14 *751:16 3.21 
4 *751:16 *1834:A 3.46 
5 *751:16 *1652:A_N 7.49 
6 *751:14 *1835:A1 2.215 
7 *751:8 *751:49 2.45 
8 *751:49 *1807:B1 8.735 
9 *751:49 *1808:A 1.6 
*END

*D_NET *752 0.00814189
*CONN
*I *1658:B I *D sky130_fd_sc_hd__or3b_2
*I *1814:A2 I *D sky130_fd_sc_hd__a31oi_2
*I *1811:A I *D sky130_fd_sc_hd__or2_2
*I *1810:A I *D sky130_fd_sc_hd__nand2_2
*I *1815:B I *D sky130_fd_sc_hd__and4_2
*I *1653:C I *D sky130_fd_sc_hd__or4b_2
*I *1834:C I *D sky130_fd_sc_hd__nor3_2
*I *1835:A3 I *D sky130_fd_sc_hd__a311o_2
*I *2111:Q O *D sky130_fd_sc_hd__dfrtp_2
*CAP
1 *1658:B 0.000341673
2 *1814:A2 0
3 *1811:A 8.09354e-05
4 *1810:A 0.000140388
5 *1815:B 0
6 *1653:C 0
7 *1834:C 0.000197234
8 *1835:A3 1.36534e-05
9 *2111:Q 0.00039387
10 *752:84 0.000602415
11 *752:26 0.000316604
12 *752:20 0.000381971
13 *752:16 0.00057007
14 *752:12 0.000506731
15 *752:10 0.000482566
16 *752:6 0.000983714
17 *1658:B *1814:A1 5.53249e-06
18 *752:16 *753:32 0.0003175
19 *752:16 *754:48 0
20 *752:20 *1653:A 9.23169e-05
21 *752:20 *1653:D_N 0.000273878
22 *752:84 *1814:A1 5.51814e-05
23 *1652:B *1834:C 8.53113e-06
24 *1652:B *752:26 6.14516e-05
25 *1656:A *752:26 0.000137571
26 *1658:A *1658:B 0.000163204
27 *1659:B *1834:C 1.88904e-05
28 *1659:B *752:26 6.21553e-05
29 *1809:A *752:16 0
30 *1812:B *1811:A 5.01076e-05
31 *1812:B *752:12 3.68942e-05
32 *1813:A *1810:A 0.000121659
33 *1813:A *752:12 3.78419e-05
34 *1813:A *752:16 9.23804e-06
35 *1815:D *1658:B 0
36 *1815:D *752:84 4.18603e-06
37 *1816:B *1658:B 0.000135676
38 *1834:B *1834:C 4.77719e-05
39 *1835:C1 *1835:A3 4.66108e-05
40 *2111:CLK *752:10 2.99101e-05
41 *2111:CLK *752:12 0.000114649
42 *2111:CLK *752:16 0.000236052
43 *2112:D *752:10 3.59266e-06
44 *2112:D *752:84 0
45 *2112:RESET_B *752:84 0.000253671
46 *2113:D *1658:B 9.71067e-05
47 *363:6 *752:20 2.10134e-05
48 *363:6 *752:26 1.56428e-05
49 *365:12 *1658:B 3.09164e-05
50 *366:23 *752:16 3.23391e-05
51 *459:43 *1810:A 2.65633e-05
52 *459:58 *752:84 0.000144113
53 *463:8 *1658:B 0
54 *540:54 *752:16 0.00034224
55 *750:35 *1835:A3 4.66108e-05
56 *751:16 *1834:C 4.94474e-05
*RES
1 *2111:Q *752:6 5.845 
2 *752:6 *752:10 5.555 
3 *752:10 *752:12 2.145 
4 *752:12 *752:16 9.245 
5 *752:16 *752:20 4.95 
6 *752:20 *752:26 4.85 
7 *752:26 *1835:A3 4.05 
8 *752:26 *1834:C 6.255 
9 *752:20 *1653:C 1.6 
10 *752:16 *1815:B 1.6 
11 *752:12 *1810:A 5.7 
12 *752:10 *1811:A 5.235 
13 *752:6 *752:84 8.99 
14 *752:84 *1814:A2 3.6 
15 *752:84 *1658:B 10.23 
*END

*D_NET *753 0.00484648
*CONN
*I *2229:A I *D sky130_fd_sc_hd__dlygate4sd3_1
*I *1814:A1 I *D sky130_fd_sc_hd__a31oi_2
*I *1815:A I *D sky130_fd_sc_hd__and4_2
*I *1653:A I *D sky130_fd_sc_hd__or4b_2
*I *1659:A I *D sky130_fd_sc_hd__or4_2
*I *1836:D_N I *D sky130_fd_sc_hd__or4b_2
*I *2112:Q O *D sky130_fd_sc_hd__dfrtp_2
*CAP
1 *2229:A 0
2 *1814:A1 0.000221569
3 *1815:A 0
4 *1653:A 0.000185805
5 *1659:A 0
6 *1836:D_N 0.000139239
7 *2112:Q 0
8 *753:56 0.000361812
9 *753:32 0.000335839
10 *753:12 0.000190017
11 *753:10 0.000900767
12 *753:4 0.000840198
13 *1653:A *1653:D_N 0.000199833
14 *1814:A1 *2245:A 4.82863e-05
15 *1814:A1 *754:23 1.07797e-05
16 *753:32 *1653:D_N 2.16917e-05
17 *1658:B *1814:A1 5.53249e-06
18 *1659:C *1836:D_N 0.000196376
19 *1659:D *753:32 0
20 *1660:B *1814:A1 0
21 *1660:B *753:10 0.000105825
22 *1660:B *753:12 5.83121e-06
23 *1809:A *753:32 0
24 *1816:B *1814:A1 8.53113e-06
25 *2001:A *753:56 8.8266e-05
26 *2112:RESET_B *1814:A1 0.000210144
27 *363:6 *1653:A 7.00889e-06
28 *366:23 *753:32 0.00013994
29 *673:10 *1814:A1 0
30 *673:21 *1814:A1 0
31 *673:21 *753:56 4.49498e-05
32 *700:84 *753:56 0.000113237
33 *752:16 *753:32 0.0003175
34 *752:20 *1653:A 9.23169e-05
35 *752:84 *1814:A1 5.51814e-05
*RES
1 *2112:Q *753:4 1.6 
2 *753:4 *753:10 8.325 
3 *753:10 *753:12 0.795 
4 *753:12 *1836:D_N 4.12 
5 *753:12 *1659:A 1.6 
6 *753:10 *753:32 8.125 
7 *753:32 *1653:A 5.53 
8 *753:32 *1815:A 1.6 
9 *753:4 *753:56 7.555 
10 *753:56 *1814:A1 10.685 
11 *753:56 *2229:A 1.6 
*END

*D_NET *754 0.0036933
*CONN
*I *1815:C I *D sky130_fd_sc_hd__and4_2
*I *1653:D_N I *D sky130_fd_sc_hd__or4b_2
*I *1814:B1 I *D sky130_fd_sc_hd__a31oi_2
*I *2245:A I *D sky130_fd_sc_hd__dlygate4sd3_1
*I *1658:C_N I *D sky130_fd_sc_hd__or3b_2
*I *2113:Q O *D sky130_fd_sc_hd__dfrtp_2
*CAP
1 *1815:C 2.08101e-05
2 *1653:D_N 7.78306e-05
3 *1814:B1 0
4 *2245:A 0.000344218
5 *1658:C_N 0.000193585
6 *2113:Q 0.000302978
7 *754:48 0.000194641
8 *754:23 0.000295438
9 *754:8 0.000543783
10 *1653:A *1653:D_N 0.000199833
11 *1658:A *1658:C_N 5.30673e-05
12 *1660:A *1658:C_N 0.000104626
13 *1660:A *754:23 5.51158e-05
14 *1814:A1 *2245:A 4.82863e-05
15 *1814:A1 *754:23 1.07797e-05
16 *1815:D *754:48 0.000162854
17 *1816:B *1658:C_N 0.000231571
18 *1816:B *754:23 0.000110683
19 *540:48 *754:8 0.0002437
20 *540:54 *1653:D_N 1.16578e-05
21 *540:54 *754:48 0.00019227
22 *752:16 *754:48 0
23 *752:20 *1653:D_N 0.000273878
24 *753:32 *1653:D_N 2.16917e-05
*RES
1 *2113:Q *754:8 7.5 
2 *754:8 *1658:C_N 8.43 
3 *754:8 *754:23 3.635 
4 *754:23 *2245:A 5.155 
5 *754:23 *1814:B1 1.6 
6 *2245:A *754:48 8.885 
7 *754:48 *1653:D_N 4.465 
8 *754:48 *1815:C 1.96 
*END

*D_NET *755 0.0010486
*CONN
*I *1817:A I *D sky130_fd_sc_hd__and2_2
*I *2194:A I *D sky130_fd_sc_hd__dlygate4sd3_1
*I *1654:C_N I *D sky130_fd_sc_hd__or3b_2
*I *2114:Q O *D sky130_fd_sc_hd__dfrtp_2
*CAP
1 *1817:A 1.71066e-05
2 *2194:A 0
3 *1654:C_N 0
4 *2114:Q 8.67294e-05
5 *755:19 0.000166375
6 *755:6 0.000235998
7 *1654:A *755:19 4.43871e-06
8 *1817:B *1817:A 8.65961e-05
9 *2393:A *755:6 0.000198051
10 *2393:A *755:19 8.65905e-05
11 *365:12 *755:19 0.000116158
12 *464:10 *1817:A 5.05521e-05
13 *464:10 *755:19 0
14 *674:12 *755:19 0
*RES
1 *2114:Q *755:6 3.43 
2 *755:6 *1654:C_N 1.6 
3 *755:6 *755:19 6.94 
4 *755:19 *2194:A 1.6 
5 *755:19 *1817:A 2.395 
*END

*D_NET *756 0.00672695
*CONN
*I *1704:A I *D sky130_fd_sc_hd__or2_2
*I *1689:A I *D sky130_fd_sc_hd__nand2_2
*I *1690:C I *D sky130_fd_sc_hd__and4_2
*I *1702:A1 I *D sky130_fd_sc_hd__a21oi_2
*I *1684:B I *D sky130_fd_sc_hd__and3_2
*I *1677:D I *D sky130_fd_sc_hd__or4_2
*I *1647:C I *D sky130_fd_sc_hd__and3_2
*I *2066:Q O *D sky130_fd_sc_hd__dfrtp_2
*CAP
1 *1704:A 8.80234e-05
2 *1689:A 0.000263815
3 *1690:C 0.000116942
4 *1702:A1 0.000261978
5 *1684:B 0.000283436
6 *1677:D 0.000106461
7 *1647:C 0
8 *2066:Q 0.000619088
9 *756:74 0.000803988
10 *756:18 0.000368188
11 *756:12 0.000683809
12 *756:10 0.000505367
13 *756:6 0.000388625
14 *1677:D *1647:A 4.66108e-05
15 *1684:B *1684:A 1.03323e-05
16 *1690:C *1690:B 1.61831e-05
17 *756:10 *763:12 0
18 *756:12 *764:27 0
19 *756:18 *1647:A 1.71013e-05
20 *756:18 *1677:C 5.33085e-05
21 *756:18 *763:22 0.000258782
22 *756:18 *764:37 0
23 *1648:C *1677:D 4.62585e-05
24 *1648:C *756:18 2.75229e-05
25 *1661:B *1684:B 8.52845e-05
26 *1676:C *756:18 3.98956e-05
27 *1685:C *756:12 0
28 *1690:D *1690:C 0.00015856
29 *1690:D *756:6 0.000130445
30 *1690:D *756:74 0.000155048
31 *1701:B *756:10 0
32 *1702:B1 *1702:A1 0.00016031
33 *1703:B *1702:A1 8.51862e-05
34 *1705:A *1702:A1 0.000110458
35 *1705:C *1704:A 3.32593e-05
36 *2066:CLK *1689:A 2.76356e-05
37 *2066:D *1689:A 4.77807e-05
38 *2068:D *756:10 0
39 *385:29 *756:12 6.67023e-05
40 *385:29 *756:18 0.000213646
41 *385:48 *1702:A1 0.000123225
42 *385:48 *756:10 7.21296e-06
43 *385:48 *756:12 1.7396e-05
44 *387:10 *1684:B 1.47347e-05
45 *387:14 *1702:A1 0.000233004
46 *673:34 *1704:A 4.77769e-05
47 *700:84 *1689:A 3.5678e-06
*RES
1 *2066:Q *756:6 3.775 
2 *756:6 *756:10 3.635 
3 *756:10 *756:12 2.655 
4 *756:12 *756:18 8.675 
5 *756:18 *1647:C 1.6 
6 *756:18 *1677:D 3.1 
7 *756:12 *1684:B 6.81 
8 *756:10 *1702:A1 10.05 
9 *756:6 *1690:C 4.06 
10 *2066:Q *756:74 6.88 
11 *756:74 *1689:A 4.735 
12 *756:74 *1704:A 7.175 
*END

*D_NET *757 0.00463708
*CONN
*I *1838:B I *D sky130_fd_sc_hd__or4bb_2
*I *1662:A I *D sky130_fd_sc_hd__and3_2
*I *1673:A_N I *D sky130_fd_sc_hd__and2b_2
*I *1676:B I *D sky130_fd_sc_hd__or4_2
*I *2076:Q O *D sky130_fd_sc_hd__dfrtp_2
*CAP
1 *1838:B 0
2 *1662:A 0
3 *1673:A_N 0.000498142
4 *1676:B 2.08101e-05
5 *2076:Q 0.00023275
6 *757:39 0.000842379
7 *757:24 0.000576772
8 *757:14 0.000444474
9 *757:14 *1838:A 1.19928e-05
10 *757:14 *1838:D_N 1.28996e-05
11 *757:14 *758:22 0.000125465
12 *757:24 *1675:A 3.42142e-05
13 *757:24 *1676:A 2.49909e-05
14 *757:24 *1838:A 3.64998e-06
15 *757:24 *1838:D_N 3.45588e-05
16 *757:24 *769:35 0.000111595
17 *757:39 *771:16 0.000268739
18 *757:39 *771:20 4.70353e-05
19 *1662:C *757:39 4.82919e-05
20 *1679:B *757:14 0.000199841
21 *1679:B *757:24 3.47837e-05
22 *1680:A *1673:A_N 4.77757e-05
23 *1680:A *757:39 0.000296192
24 *1680:B *757:24 6.07575e-06
25 *1681:A2 *1673:A_N 0
26 *1681:B1 *1673:A_N 0
27 *1840:C *757:14 0.00011577
28 *1964:A *1673:A_N 8.61608e-05
29 *2075:CLK *757:24 3.65279e-05
30 *2075:CLK *757:39 9.4087e-05
31 *2115:CLK *1673:A_N 0.000161467
32 *2117:CLK *1673:A_N 0.000110874
33 *540:21 *1673:A_N 7.82285e-05
34 *696:61 *1673:A_N 3.05373e-05
*RES
1 *2076:Q *757:14 10.685 
2 *757:14 *757:24 7.75 
3 *757:24 *1676:B 1.96 
4 *757:24 *757:39 7.395 
5 *757:39 *1673:A_N 15.5 
6 *757:39 *1662:A 1.6 
7 *757:14 *1838:B 1.6 
*END

*D_NET *758 0.00598758
*CONN
*I *2201:A I *D sky130_fd_sc_hd__dlygate4sd3_1
*I *1663:A I *D sky130_fd_sc_hd__and2_2
*I *1676:A I *D sky130_fd_sc_hd__or4_2
*I *1838:A I *D sky130_fd_sc_hd__or4bb_2
*I *2077:Q O *D sky130_fd_sc_hd__dfrtp_2
*CAP
1 *2201:A 2.98877e-05
2 *1663:A 2.74003e-05
3 *1676:A 0.000145459
4 *1838:A 5.69322e-05
5 *2077:Q 0.00023817
6 *758:46 8.76192e-05
7 *758:22 0.00109365
8 *758:14 0.00115976
9 *758:22 *759:21 0.000120972
10 *1663:B *1663:A 8.6076e-05
11 *1664:C *758:22 2.92496e-05
12 *1669:A2 *758:22 0.000198217
13 *1672:B *758:14 0.000143266
14 *1672:B *758:46 4.21314e-05
15 *1679:A *1676:A 0.000213701
16 *1679:A *758:22 0.000154885
17 *1680:B *1838:A 0.000118081
18 *1840:A *1676:A 0
19 *1840:C *1676:A 0.000197885
20 *1840:C *758:22 4.92861e-05
21 *2075:CLK *1676:A 0.000271308
22 *2161:A *758:14 3.66754e-05
23 *2165:A *758:22 2.42043e-05
24 *374:6 *1663:A 0.000121811
25 *374:6 *2201:A 0.000149438
26 *374:6 *758:22 0.000461442
27 *374:19 *758:22 0.000451959
28 *539:10 *758:14 0
29 *696:20 *1663:A 1.91597e-05
30 *696:20 *2201:A 9.28568e-05
31 *757:14 *1838:A 1.19928e-05
32 *757:14 *758:22 0.000125465
33 *757:24 *1676:A 2.49909e-05
34 *757:24 *1838:A 3.64998e-06
*RES
1 *2077:Q *758:14 7.86 
2 *758:14 *758:22 19.465 
3 *758:22 *1838:A 4.74 
4 *758:22 *1676:A 8.52 
5 *758:14 *758:46 2.615 
6 *758:46 *1663:A 2.74 
7 *758:46 *2201:A 3.085 
*END

*D_NET *759 0.00196219
*CONN
*I *1664:B I *D sky130_fd_sc_hd__and3_2
*I *1678:D I *D sky130_fd_sc_hd__or4_2
*I *1669:A1 I *D sky130_fd_sc_hd__a21oi_2
*I *2212:A I *D sky130_fd_sc_hd__dlygate4sd3_1
*I *2078:Q O *D sky130_fd_sc_hd__dfrtp_2
*CAP
1 *1664:B 3.66683e-05
2 *1678:D 0.000118883
3 *1669:A1 2.9778e-05
4 *2212:A 0
5 *2078:Q 0.000102799
6 *759:21 0.000291349
7 *759:10 0.000297604
8 *759:6 0.000294384
9 *759:10 *1664:A 0.000183738
10 *759:10 *760:27 0
11 *759:21 *1678:C 0
12 *759:21 *760:27 0
13 *1664:C *1664:B 5.062e-06
14 *1664:C *759:6 1.54878e-05
15 *1664:C *759:10 4.40643e-05
16 *1664:C *759:21 5.00356e-05
17 *1669:B1 *1678:D 8.53011e-05
18 *1669:B1 *759:21 0.00028606
19 *1670:B *759:10 0
20 *2079:RESET_B *759:10 0
21 *758:22 *759:21 0.000120972
*RES
1 *2078:Q *759:6 2.74 
2 *759:6 *759:10 5.42 
3 *759:10 *2212:A 3.6 
4 *759:10 *759:21 6.185 
5 *759:21 *1669:A1 2.05 
6 *759:21 *1678:D 3.445 
7 *759:6 *1664:B 2.05 
*END

*D_NET *760 0.00208604
*CONN
*I *1678:C I *D sky130_fd_sc_hd__or4_2
*I *2186:A I *D sky130_fd_sc_hd__dlygate4sd3_1
*I *1664:A I *D sky130_fd_sc_hd__and3_2
*I *2079:Q O *D sky130_fd_sc_hd__dfrtp_2
*CAP
1 *1678:C 0.000223536
2 *2186:A 6.05382e-05
3 *1664:A 9.53671e-05
4 *2079:Q 6.67864e-05
5 *760:27 0.000557641
6 *760:6 0.000435721
7 *1678:C *1678:A 9.12671e-06
8 *1664:C *1664:A 0.00015428
9 *1669:B1 *1678:C 0
10 *1670:B *1678:C 6.55406e-05
11 *1670:B *760:27 7.58573e-05
12 *2079:RESET_B *1664:A 0
13 *2161:A *760:6 3.1835e-05
14 *2161:A *760:27 9.14601e-05
15 *2187:A *1678:C 0
16 *383:12 *1678:C 2.8919e-05
17 *535:245 *1678:C 5.69098e-06
18 *541:12 *1678:C 0
19 *759:10 *1664:A 0.000183738
20 *759:10 *760:27 0
21 *759:21 *1678:C 0
22 *759:21 *760:27 0
*RES
1 *2079:Q *760:6 2.395 
2 *760:6 *1664:A 8.765 
3 *760:6 *760:27 6.365 
4 *760:27 *2186:A 4.395 
5 *760:27 *1678:C 7.65 
*END

*D_NET *761 0.00416433
*CONN
*I *1678:B I *D sky130_fd_sc_hd__or4_2
*I *1665:A I *D sky130_fd_sc_hd__nand2_2
*I *1667:A I *D sky130_fd_sc_hd__or2_2
*I *2080:Q O *D sky130_fd_sc_hd__dfrtp_2
*CAP
1 *1678:B 0.000662301
2 *1665:A 0
3 *1667:A 0.000353661
4 *2080:Q 0.000176057
5 *761:14 0.000614587
6 *761:8 0.00109928
7 *1678:B *1678:A 3.43898e-05
8 *1665:B *1667:A 0.00012657
9 *1666:A *761:14 9.4087e-05
10 *2080:RESET_B *1678:B 6.90254e-05
11 *2080:RESET_B *761:14 5.20193e-05
12 *2129:A *1678:B 2.747e-05
13 *2166:A *1667:A 4.35348e-05
14 *375:17 *1667:A 3.50581e-05
15 *376:12 *761:14 5.42473e-05
16 *383:12 *1678:B 7.5687e-06
17 *541:8 *1678:B 0.000193038
18 *698:10 *1667:A 4.43871e-06
19 *699:10 *1667:A 0
20 *699:10 *761:14 1.71013e-05
21 *699:23 *1678:B 2.25299e-05
22 *699:23 *761:14 0.000177287
23 *699:32 *1678:B 3.68942e-05
24 *700:10 *1667:A 5.23362e-05
25 *700:21 *1667:A 0.000210846
26 *700:21 *761:14 0
27 *700:46 *761:14 0
*RES
1 *2080:Q *761:8 5.43 
2 *761:8 *761:14 8.18 
3 *761:14 *1667:A 11.735 
4 *761:14 *1665:A 1.6 
5 *761:8 *1678:B 12.405 
*END

*D_NET *762 0.00360306
*CONN
*I *1678:A I *D sky130_fd_sc_hd__or4_2
*I *2181:A I *D sky130_fd_sc_hd__dlygate4sd3_1
*I *2081:Q O *D sky130_fd_sc_hd__dfrtp_2
*CAP
1 *1678:A 0.000923277
2 *2181:A 0.00017524
3 *2081:Q 0.000430212
4 *762:8 0.00152873
5 *1678:B *1678:A 3.43898e-05
6 *1678:C *1678:A 9.12671e-06
7 *1970:A *2181:A 0.000197826
8 *2081:RESET_B *1678:A 0
9 *2081:RESET_B *2181:A 0
10 *2129:A *1678:A 0.000104457
11 *383:12 *1678:A 8.64599e-05
12 *541:8 *1678:A 0.000113343
13 *699:10 *2181:A 0
14 *699:23 *1678:A 0
15 *699:23 *2181:A 0
*RES
1 *2081:Q *762:8 8.19 
2 *762:8 *2181:A 6.81 
3 *762:8 *1678:A 17.37 
*END

*D_NET *763 0.00471806
*CONN
*I *2241:A I *D sky130_fd_sc_hd__dlygate4sd3_1
*I *1690:B I *D sky130_fd_sc_hd__and4_2
*I *1684:A I *D sky130_fd_sc_hd__and3_2
*I *1839:B I *D sky130_fd_sc_hd__nand3b_2
*I *1647:B I *D sky130_fd_sc_hd__and3_2
*I *1677:C I *D sky130_fd_sc_hd__or4_2
*I *2067:Q O *D sky130_fd_sc_hd__dfrtp_2
*CAP
1 *2241:A 2.32802e-05
2 *1690:B 0.000192666
3 *1684:A 5.03462e-05
4 *1839:B 0.000117837
5 *1647:B 0
6 *1677:C 5.00982e-05
7 *2067:Q 7.89023e-05
8 *763:22 0.000139159
9 *763:18 0.00044746
10 *763:12 0.000450498
11 *763:10 0.000449907
12 *763:8 0.000199834
13 *1839:B *1645:A 5.83805e-05
14 *1839:B *1645:B 8.65961e-05
15 *1839:B *1839:C 9.10741e-06
16 *1839:B *764:37 3.83041e-05
17 *1839:B *765:25 1.61831e-05
18 *1839:B *766:28 0.0001249
19 *763:18 *1645:A 2.49909e-05
20 *763:18 *1661:A 0
21 *763:18 *773:18 5.74756e-05
22 *1648:C *1677:C 0.000159741
23 *1661:B *763:18 0.00010052
24 *1676:C *1677:C 2.7881e-05
25 *1676:C *763:22 0.000146319
26 *1684:B *1684:A 1.03323e-05
27 *1690:C *1690:B 1.61831e-05
28 *1690:D *1690:B 0.000188727
29 *1703:A *763:10 0.000103464
30 *1703:A *763:12 0.00024836
31 *1956:A *2241:A 0.000122821
32 *2067:RESET_B *2241:A 7.11365e-05
33 *2067:RESET_B *763:8 3.72081e-05
34 *359:6 *1677:C 0.000158072
35 *385:29 *763:12 4.87819e-05
36 *385:29 *763:18 0.000135126
37 *385:48 *763:12 3.4222e-05
38 *387:10 *1684:A 4.82863e-05
39 *387:10 *763:12 0.00010556
40 *387:10 *763:18 2.73058e-05
41 *756:10 *763:12 0
42 *756:18 *1677:C 5.33085e-05
43 *756:18 *763:22 0.000258782
*RES
1 *2067:Q *763:8 4.98 
2 *763:8 *763:10 1.89 
3 *763:10 *763:12 4.185 
4 *763:12 *763:18 7.085 
5 *763:18 *763:22 5.165 
6 *763:22 *1677:C 5.7 
7 *763:22 *1647:B 3.6 
8 *763:18 *1839:B 4.48 
9 *763:12 *1684:A 4.395 
10 *763:10 *1690:B 7.155 
11 *763:8 *2241:A 4.74 
*END

*D_NET *764 0.00371773
*CONN
*I *1699:A I *D sky130_fd_sc_hd__nor2_2
*I *1685:B I *D sky130_fd_sc_hd__and3_2
*I *1646:D I *D sky130_fd_sc_hd__and4_2
*I *1839:A_N I *D sky130_fd_sc_hd__nand3b_2
*I *1645:B I *D sky130_fd_sc_hd__nand2_2
*I *1690:A I *D sky130_fd_sc_hd__and4_2
*I *2068:Q O *D sky130_fd_sc_hd__dfrtp_2
*CAP
1 *1699:A 0
2 *1685:B 5.68111e-05
3 *1646:D 5.54705e-05
4 *1839:A_N 0
5 *1645:B 1.5088e-05
6 *1690:A 5.40687e-05
7 *2068:Q 0.000330096
8 *764:53 0.000331687
9 *764:37 0.000285067
10 *764:27 0.000649603
11 *764:25 0.000241991
12 *764:14 0.000465936
13 *1645:B *1645:A 7.13211e-05
14 *1646:D *765:16 5.42473e-05
15 *1646:D *773:18 7.47145e-05
16 *1685:B *1685:A 2.77283e-05
17 *764:25 *765:10 0
18 *764:27 *765:10 0
19 *764:27 *765:16 0
20 *764:37 *1645:A 2.75145e-05
21 *764:37 *773:18 0
22 *764:53 *1685:A 2.65814e-06
23 *1676:C *764:37 6.57653e-06
24 *1685:C *764:27 7.23602e-05
25 *1685:C *764:53 3.35323e-05
26 *1698:A *1690:A 4.66108e-05
27 *1698:A *764:14 4.77807e-05
28 *1698:A *764:25 0.000185755
29 *1698:B *764:14 1.83847e-05
30 *1698:B *764:25 4.36954e-05
31 *1700:B *764:14 0.000179077
32 *1700:B *764:25 0
33 *1701:B *764:25 6.34101e-06
34 *1701:B *764:27 4.43871e-06
35 *1839:B *1645:B 8.65961e-05
36 *1839:B *764:37 3.83041e-05
37 *2068:CLK *764:14 3.112e-05
38 *2068:RESET_B *764:14 2.01644e-05
39 *2069:CLK *764:14 6.12027e-05
40 *542:73 *764:14 9.17869e-05
41 *756:12 *764:27 0
42 *756:18 *764:37 0
*RES
1 *2068:Q *764:14 12.44 
2 *764:14 *1690:A 2.395 
3 *764:14 *764:25 4.4 
4 *764:25 *764:27 2.655 
5 *764:27 *764:37 5.585 
6 *764:37 *1645:B 2.395 
7 *764:37 *1839:A_N 1.6 
8 *764:27 *764:53 4.52 
9 *764:53 *1646:D 7.235 
10 *764:53 *1685:B 2.395 
11 *764:25 *1699:A 3.6 
*END

*D_NET *765 0.00518176
*CONN
*I *1697:A I *D sky130_fd_sc_hd__or2_2
*I *1691:A I *D sky130_fd_sc_hd__nand2_2
*I *1685:A I *D sky130_fd_sc_hd__and3_2
*I *1839:C I *D sky130_fd_sc_hd__nand3b_2
*I *1645:A I *D sky130_fd_sc_hd__nand2_2
*I *1646:C I *D sky130_fd_sc_hd__and4_2
*I *2069:Q O *D sky130_fd_sc_hd__dfrtp_2
*CAP
1 *1697:A 1.48089e-05
2 *1691:A 7.78108e-05
3 *1685:A 5.01808e-05
4 *1839:C 1.5987e-05
5 *1645:A 9.7278e-05
6 *1646:C 0
7 *2069:Q 0.000381003
8 *765:60 0.000506605
9 *765:25 0.000253008
10 *765:16 0.000310278
11 *765:10 0.000450713
12 *765:8 0.00102499
13 *1645:A *773:18 0.000184796
14 *765:16 *766:18 4.99619e-05
15 *765:16 *766:28 4.99619e-05
16 *765:16 *767:25 1.22762e-05
17 *765:25 *766:28 9.08273e-05
18 *765:25 *773:18 0.000313852
19 *1645:B *1645:A 7.13211e-05
20 *1646:D *765:16 5.42473e-05
21 *1676:C *1645:A 4.82863e-05
22 *1685:B *1685:A 2.77283e-05
23 *1685:C *1685:A 8.8266e-05
24 *1686:B *765:16 0
25 *1696:A *765:16 0
26 *1696:B *765:10 0
27 *1698:B *1691:A 0.000115351
28 *1698:B *765:60 3.45492e-05
29 *1698:C *765:60 0.000160338
30 *1700:A *1691:A 4.42148e-05
31 *1700:A *1697:A 5.19006e-06
32 *1700:A *765:60 9.22206e-05
33 *1700:B *765:10 0
34 *1700:B *765:60 0
35 *1701:B *765:60 1.54665e-05
36 *1839:B *1645:A 5.83805e-05
37 *1839:B *1839:C 9.10741e-06
38 *1839:B *765:25 1.61831e-05
39 *1840:D *765:25 3.45679e-05
40 *1957:A *765:60 8.52972e-05
41 *2068:RESET_B *765:60 0.000113143
42 *2069:CLK *765:60 3.97492e-05
43 *2069:D *765:8 5.83121e-06
44 *393:17 *1691:A 0.000122821
45 *542:73 *765:10 0
46 *542:73 *765:60 0
47 *763:18 *1645:A 2.49909e-05
48 *764:25 *765:10 0
49 *764:27 *765:10 0
50 *764:27 *765:16 0
51 *764:37 *1645:A 2.75145e-05
52 *764:53 *1685:A 2.65814e-06
*RES
1 *2069:Q *765:8 9.225 
2 *765:8 *765:10 3.675 
3 *765:10 *765:16 5.45 
4 *765:16 *1646:C 1.6 
5 *765:16 *765:25 4.17 
6 *765:25 *1645:A 4.945 
7 *765:25 *1839:C 2.215 
8 *765:10 *1685:A 4.74 
9 *765:8 *765:60 10.775 
10 *765:60 *1691:A 4.135 
11 *765:60 *1697:A 1.96 
*END

*D_NET *766 0.00403892
*CONN
*I *2227:A I *D sky130_fd_sc_hd__dlygate4sd3_1
*I *1686:A I *D sky130_fd_sc_hd__and2_2
*I *1646:B I *D sky130_fd_sc_hd__and4_2
*I *1837:B I *D sky130_fd_sc_hd__or4bb_2
*I *1677:B I *D sky130_fd_sc_hd__or4_2
*I *2070:Q O *D sky130_fd_sc_hd__dfrtp_2
*CAP
1 *2227:A 8.98148e-05
2 *1686:A 0
3 *1646:B 0
4 *1837:B 0
5 *1677:B 3.87554e-05
6 *2070:Q 0
7 *766:28 0.000485603
8 *766:18 0.000637375
9 *766:14 0.000896589
10 *766:4 0.000795876
11 *1677:B *1675:A 7.4027e-05
12 *1677:B *1837:C_N 0
13 *766:14 *767:14 8.65905e-05
14 *766:18 *1646:A 5.05437e-05
15 *766:18 *767:14 0.000125968
16 *766:28 *1675:A 6.52111e-05
17 *766:28 *1837:C_N 0
18 *1648:B *766:28 0
19 *1676:C *766:28 5.84456e-05
20 *1695:B *766:14 8.53113e-06
21 *1839:B *766:28 0.0001249
22 *1840:D *766:28 8.65961e-05
23 *1959:A *766:14 0
24 *2070:D *766:14 3.64998e-06
25 *2071:CLK *766:14 3.66927e-05
26 *389:10 *766:18 8.65905e-05
27 *542:43 *766:14 5.42473e-05
28 *542:60 *766:14 2.76225e-05
29 *542:73 *766:14 1.45386e-05
30 *699:58 *2227:A 0
31 *700:59 *766:14 0
32 *765:16 *766:18 4.99619e-05
33 *765:16 *766:28 4.99619e-05
34 *765:25 *766:28 9.08273e-05
*RES
1 *2070:Q *766:4 1.6 
2 *766:4 *766:14 13.33 
3 *766:14 *766:18 3.915 
4 *766:18 *766:28 9.2 
5 *766:28 *1677:B 4.47 
6 *766:28 *1837:B 3.6 
7 *766:18 *1646:B 1.6 
8 *766:14 *1686:A 1.6 
9 *766:4 *2227:A 6.98 
*END

*D_NET *767 0.00580164
*CONN
*I *1688:B I *D sky130_fd_sc_hd__and3_2
*I *2238:A I *D sky130_fd_sc_hd__dlygate4sd3_1
*I *1837:C_N I *D sky130_fd_sc_hd__or4bb_2
*I *1677:A I *D sky130_fd_sc_hd__or4_2
*I *1687:A I *D sky130_fd_sc_hd__nand2_2
*I *1646:A I *D sky130_fd_sc_hd__and4_2
*I *2071:Q O *D sky130_fd_sc_hd__dfrtp_2
*CAP
1 *1688:B 0.000217384
2 *2238:A 0
3 *1837:C_N 0.000290601
4 *1677:A 1.51617e-05
5 *1687:A 4.1676e-05
6 *1646:A 3.9347e-05
7 *2071:Q 0.000487248
8 *767:42 0.000544677
9 *767:25 0.000521745
10 *767:14 0.000527378
11 *767:12 0.000451353
12 *767:6 0.000909109
13 *1688:B *2207:A 0
14 *1837:C_N *1675:A 0.00010978
15 *1837:C_N *1837:A 1.91597e-05
16 *1837:C_N *770:41 4.66108e-05
17 *767:25 *773:18 0
18 *767:42 *1648:A 0.000269932
19 *1648:B *767:25 0
20 *1648:C *1677:A 8.8266e-05
21 *1648:C *767:42 0.000188957
22 *1677:B *1837:C_N 0
23 *1686:B *767:25 0
24 *1840:A *1687:A 0
25 *1840:A *767:25 0
26 *1840:B *1837:C_N 5.05437e-05
27 *1840:C *1837:C_N 9.86689e-05
28 *1960:A *1688:B 2.75229e-05
29 *2071:D *767:12 7.1761e-05
30 *2071:D *767:14 0.000115779
31 *2071:RESET_B *1688:B 0
32 *2073:D *1688:B 0.000163012
33 *359:6 *1677:A 5.05437e-05
34 *359:6 *767:42 6.97202e-05
35 *389:10 *767:25 0
36 *389:14 *1687:A 0
37 *389:14 *767:25 0
38 *542:43 *767:25 0
39 *699:58 *1688:B 0.000110323
40 *765:16 *767:25 1.22762e-05
41 *766:14 *767:14 8.65905e-05
42 *766:18 *1646:A 5.05437e-05
43 *766:18 *767:14 0.000125968
44 *766:28 *1837:C_N 0
*RES
1 *2071:Q *767:6 6.88 
2 *767:6 *767:12 2.895 
3 *767:12 *767:14 4.935 
4 *767:14 *1646:A 2.395 
5 *767:14 *767:25 5.93 
6 *767:25 *1687:A 4.215 
7 *767:25 *767:42 7.31 
8 *767:42 *1677:A 2.395 
9 *767:42 *1837:C_N 10.955 
10 *767:12 *2238:A 1.6 
11 *767:6 *1688:B 10.235 
*END

*D_NET *768 0.00560978
*CONN
*I *1648:A I *D sky130_fd_sc_hd__and3_2
*I *2205:A I *D sky130_fd_sc_hd__dlygate4sd3_1
*I *1688:A I *D sky130_fd_sc_hd__and3_2
*I *1675:C I *D sky130_fd_sc_hd__or4b_2
*I *1838:D_N I *D sky130_fd_sc_hd__or4bb_2
*I *2072:Q O *D sky130_fd_sc_hd__dfrtp_2
*CAP
1 *1648:A 0.000280741
2 *2205:A 0.000406951
3 *1688:A 0
4 *1675:C 0
5 *1838:D_N 0.000123517
6 *2072:Q 0
7 *768:38 0.000420014
8 *768:12 0.00117718
9 *768:4 0.00134746
10 *1838:D_N *1675:A 0
11 *768:38 *2207:A 0
12 *1679:B *1838:D_N 0.000134778
13 *1679:B *768:12 0.000186897
14 *1680:B *1838:D_N 0.000124895
15 *1687:B *1648:A 7.35729e-05
16 *1688:C *1648:A 0.00011577
17 *1688:C *2205:A 0.000349587
18 *1960:A *2205:A 0.000353598
19 *2073:D *768:38 6.28765e-05
20 *2073:RESET_B *768:38 0
21 *699:32 *768:38 5.10315e-05
22 *699:58 *768:38 8.35213e-05
23 *757:14 *1838:D_N 1.28996e-05
24 *757:24 *1838:D_N 3.45588e-05
25 *767:42 *1648:A 0.000269932
*RES
1 *2072:Q *768:4 1.6 
2 *768:4 *768:12 13.17 
3 *768:12 *1838:D_N 8.63 
4 *768:12 *1675:C 1.6 
5 *768:4 *768:38 9.655 
6 *768:38 *1688:A 1.6 
7 *768:38 *2205:A 5.86 
8 *2205:A *1648:A 9.095 
*END

*D_NET *769 0.00694342
*CONN
*I *2207:A I *D sky130_fd_sc_hd__dlygate4sd3_1
*I *1838:C_N I *D sky130_fd_sc_hd__or4bb_2
*I *1675:B I *D sky130_fd_sc_hd__or4b_2
*I *1647:A I *D sky130_fd_sc_hd__and3_2
*I *2073:Q O *D sky130_fd_sc_hd__dfrtp_2
*CAP
1 *2207:A 0.000225064
2 *1838:C_N 2.51931e-05
3 *1675:B 0.000169277
4 *1647:A 0.000153604
5 *2073:Q 0.000200661
6 *769:35 0.000350476
7 *769:8 0.00155709
8 *769:6 0.00167321
9 *1675:B *1675:A 0.000175183
10 *1675:B *771:16 2.57991e-05
11 *769:35 *1675:A 0.000255818
12 mem_wdata[19] *2207:A 2.10433e-05
13 *1648:C *1647:A 4.66108e-05
14 *1676:C *1647:A 9.14049e-05
15 *1676:D *1675:B 0.000113512
16 *1676:D *769:35 0.000133205
17 *1677:D *1647:A 4.66108e-05
18 *1679:B *769:35 0
19 *1680:B *1838:C_N 4.66108e-05
20 *1688:B *2207:A 0
21 *2071:RESET_B *2207:A 0.000116853
22 *2073:CLK *769:8 0.00042877
23 *2073:D *2207:A 0
24 *2075:CLK *1647:A 0.000119756
25 *2075:CLK *769:8 0.000377026
26 *385:29 *1647:A 0
27 *542:14 *769:8 0.000461941
28 *756:18 *1647:A 1.71013e-05
29 *757:24 *769:35 0.000111595
30 *768:38 *2207:A 0
*RES
1 *2073:Q *769:6 3.775 
2 *769:6 *769:8 15.975 
3 *769:8 *1647:A 8.315 
4 *769:8 *769:35 9.81 
5 *769:35 *1675:B 7.05 
6 *769:35 *1838:C_N 4.05 
7 *769:6 *2207:A 9.47 
*END

*D_NET *770 0.00442241
*CONN
*I *1675:A I *D sky130_fd_sc_hd__or4b_2
*I *1837:D_N I *D sky130_fd_sc_hd__or4bb_2
*I *1661:A I *D sky130_fd_sc_hd__and3_2
*I *2232:A I *D sky130_fd_sc_hd__dlygate4sd3_1
*I *1657:B I *D sky130_fd_sc_hd__nand4_2
*I *2074:Q O *D sky130_fd_sc_hd__dfrtp_2
*CAP
1 *1675:A 0.000377119
2 *1837:D_N 0
3 *1661:A 0.000127508
4 *2232:A 8.43687e-05
5 *1657:B 0.000135875
6 *2074:Q 0
7 *770:41 0.00056951
8 *770:19 0.000287974
9 *770:8 0.000380618
10 *770:4 0.000361037
11 *1675:A *1837:A 0.000120655
12 *2232:A *773:18 0.000114858
13 *770:41 *1837:A 0.000271308
14 *1675:B *1675:A 0.000175183
15 *1676:C *1675:A 0.000371871
16 *1676:D *1675:A 1.7902e-05
17 *1677:B *1675:A 7.4027e-05
18 *1679:B *1675:A 0
19 *1682:B1 *1657:B 0.000233925
20 *1682:B1 *770:19 6.45236e-05
21 *1837:C_N *1675:A 0.00010978
22 *1837:C_N *770:41 4.66108e-05
23 *1838:D_N *1675:A 0
24 *1840:C *1675:A 0
25 *372:12 *1661:A 5.92191e-05
26 *372:12 *770:19 1.71013e-05
27 *372:14 *1657:B 1.26548e-05
28 *372:14 *770:19 2.4997e-05
29 *696:61 *1661:A 0
30 *696:80 *1661:A 2.85364e-05
31 *757:24 *1675:A 3.42142e-05
32 *763:18 *1661:A 0
33 *766:28 *1675:A 6.52111e-05
34 *769:35 *1675:A 0.000255818
*RES
1 *2074:Q *770:4 1.6 
2 *770:4 *770:8 3.83 
3 *770:8 *1657:B 6.51 
4 *770:8 *770:19 1.635 
5 *770:19 *2232:A 5.43 
6 *770:19 *1661:A 6 
7 *770:4 *770:41 3.825 
8 *770:41 *1837:D_N 1.6 
9 *770:41 *1675:A 15.455 
*END

*D_NET *771 0.00534172
*CONN
*I *1675:D_N I *D sky130_fd_sc_hd__or4b_2
*I *1837:A I *D sky130_fd_sc_hd__or4bb_2
*I *1657:A I *D sky130_fd_sc_hd__nand4_2
*I *1662:B I *D sky130_fd_sc_hd__and3_2
*I *1681:A1 I *D sky130_fd_sc_hd__o211a_2
*I *2075:Q O *D sky130_fd_sc_hd__dfrtp_2
*CAP
1 *1675:D_N 0
2 *1837:A 0.000327462
3 *1657:A 2.9008e-05
4 *1662:B 0
5 *1681:A1 6.52397e-05
6 *2075:Q 0.000477509
7 *771:44 0.000493167
8 *771:20 0.000258145
9 *771:16 0.000583594
10 *771:8 0.0007315
11 *1661:B *1837:A 0.000185411
12 *1673:B *1657:A 7.10707e-05
13 *1673:B *771:44 8.78735e-05
14 *1675:A *1837:A 0.000120655
15 *1675:B *771:16 2.57991e-05
16 *1676:D *771:16 0.000270347
17 *1680:A *771:20 1.91597e-05
18 *1680:A *771:44 2.68016e-05
19 *1681:A2 *1681:A1 0.000117832
20 *1681:B1 *771:8 0.000130192
21 *1681:C1 *1681:A1 0.000101946
22 *1837:C_N *1837:A 1.91597e-05
23 *1964:A *771:20 0.000196566
24 *2075:CLK *771:16 0.000118185
25 *2075:D *1681:A1 0
26 *2075:RESET_B *771:8 8.85917e-05
27 *359:6 *1657:A 2.05056e-05
28 *359:12 *1657:A 5.13714e-05
29 *372:14 *771:44 0
30 *373:12 *1681:A1 1.40475e-05
31 *373:28 *1681:A1 1.62134e-05
32 *385:29 *1837:A 8.98913e-05
33 *385:29 *771:44 1.73877e-05
34 *757:39 *771:16 0.000268739
35 *757:39 *771:20 4.70353e-05
36 *770:41 *1837:A 0.000271308
*RES
1 *2075:Q *771:8 9.655 
2 *771:8 *771:16 10.195 
3 *771:16 *771:20 3.225 
4 *771:20 *1681:A1 7.53125 
5 *771:20 *1662:B 1.6 
6 *771:16 *771:44 4.4 
7 *771:44 *1657:A 4.74 
8 *771:44 *1837:A 10.515 
9 *771:8 *1675:D_N 1.6 
*END

*D_NET *772 0.00230655
*CONN
*I *2121:D I *D sky130_fd_sc_hd__dfstp_2
*I *1836:X O *D sky130_fd_sc_hd__or4b_2
*CAP
1 *2121:D 0.000809749
2 *1836:X 0.000809749
3 *1650:A *2121:D 3.43386e-05
4 *1650:B *2121:D 0.000109187
5 *1836:B *2121:D 2.01259e-05
6 *1925:A1 *2121:D 6.52347e-05
7 *1925:A3 *2121:D 7.98007e-06
8 *1925:B1 *2121:D 4.1652e-06
9 *1998:A *2121:D 0.000235339
10 *2109:RESET_B *2121:D 3.54038e-05
11 *549:55 *2121:D 0.000118081
12 *687:47 *2121:D 0
13 *687:70 *2121:D 0
14 *749:21 *2121:D 5.72004e-05
*RES
1 *1836:X *2121:D 20.595 
*END

*D_NET *773 0.00819027
*CONN
*I *2122:D I *D sky130_fd_sc_hd__dfstp_2
*I *1840:X O *D sky130_fd_sc_hd__or4_2
*CAP
1 *2122:D 0.00133578
2 *1840:X 0.00170358
3 *773:18 0.00303935
4 *1645:A *773:18 0.000184796
5 *1646:D *773:18 7.47145e-05
6 *1648:B *773:18 7.4027e-05
7 *1676:C *773:18 4.82863e-05
8 *1683:A *773:18 7.87003e-05
9 *1705:B *773:18 0.000138596
10 *1705:C *773:18 0.000354918
11 *1928:A_N *2122:D 0.000197191
12 *2067:CLK *773:18 0.000176468
13 *2110:RESET_B *2122:D 2.7622e-05
14 *2232:A *773:18 0.000114858
15 *540:79 *773:18 0.000192755
16 *696:61 *773:18 7.72994e-05
17 *763:18 *773:18 5.74756e-05
18 *764:37 *773:18 0
19 *765:25 *773:18 0.000313852
20 *767:25 *773:18 0
*RES
1 *1840:X *773:18 37.485 
2 *773:18 *2122:D 22.75 
*END

*D_NET *774 0.00151783
*CONN
*I *1621:B1 I *D sky130_fd_sc_hd__a31o_2
*I *2104:Q O *D sky130_fd_sc_hd__dfrtp_2
*CAP
1 *1621:B1 0.000289273
2 *2104:Q 0.000289273
3 *1621:B1 *1623:B1 0
4 *1621:A2 *1621:B1 6.97034e-05
5 *1622:A *1621:B1 0.00020613
6 *1622:B *1621:B1 0.000249935
7 *1722:A1 *1621:B1 0
8 *1722:A3 *1621:B1 0.000198934
9 *2103:RESET_B *1621:B1 0
10 *539:24 *1621:B1 4.94404e-05
11 *711:10 *1621:B1 0
12 *727:40 *1621:B1 0
13 *734:63 *1621:B1 0.000116853
14 *734:71 *1621:B1 4.82919e-05
*RES
1 *2104:Q *1621:B1 15.105 
*END

*D_NET *775 0.00174745
*CONN
*I *1778:A1 I *D sky130_fd_sc_hd__a22o_2
*I *1640:S I *D sky130_fd_sc_hd__mux2_1
*I *1634:B I *D sky130_fd_sc_hd__nand2b_2
*I *2015:Q O *D sky130_fd_sc_hd__dfstp_2
*CAP
1 *1778:A1 9.63258e-05
2 *1640:S 0
3 *1634:B 3.35504e-05
4 *2015:Q 0.000379718
5 *775:14 0.000316943
6 *1640:A1 *1634:B 0.000198939
7 *1640:A1 *775:14 3.83041e-05
8 *1643:B1 *1634:B 0.000198939
9 *1643:B1 *775:14 4.82863e-05
10 *1778:A2 *1778:A1 0.000140661
11 *1778:A2 *775:14 1.4174e-05
12 *1778:B1 *1778:A1 3.60457e-05
13 *1778:B1 *775:14 0.00024556
14 *1779:B1_N *775:14 0
15 *347:10 *775:14 0
*RES
1 *2015:Q *775:14 9.95 
2 *775:14 *1634:B 3.43 
3 *775:14 *1640:S 1.6 
4 *2015:Q *1778:A1 5.03 
*END

*D_NET *776 0.00426204
*CONN
*I *1778:B2 I *D sky130_fd_sc_hd__a22o_2
*I *1640:A0 I *D sky130_fd_sc_hd__mux2_1
*I *1644:A1 I *D sky130_fd_sc_hd__a31o_2
*I *1642:A1 I *D sky130_fd_sc_hd__a31oi_2
*I *1639:A I *D sky130_fd_sc_hd__nand2_2
*I *1779:A1 I *D sky130_fd_sc_hd__a21bo_2
*I *2016:Q O *D sky130_fd_sc_hd__dfrtp_2
*CAP
1 *1778:B2 0.000127807
2 *1640:A0 5.11877e-05
3 *1644:A1 0.000186801
4 *1642:A1 0
5 *1639:A 5.96346e-05
6 *1779:A1 0.000104684
7 *2016:Q 0.000297307
8 *776:25 7.9188e-05
9 *776:23 0.000247806
10 *776:21 0.000227336
11 *776:8 0.000674449
12 *776:6 0.000860181
13 *1642:A2 *1644:A1 4.60584e-05
14 *1643:B1 *1640:A0 4.41506e-05
15 *1644:B1 *1644:A1 0.000196364
16 *1779:A2 *1639:A 3.09233e-05
17 *1779:A2 *776:21 0.000301892
18 *1779:A2 *776:23 0.000108322
19 *1779:A2 *776:25 4.21314e-05
20 *2016:CLK *1779:A1 3.03684e-05
21 *2016:CLK *776:8 6.27529e-05
22 *2016:D *1778:B2 0
23 *350:10 *1639:A 0.000183286
24 *694:53 *1639:A 5.20193e-05
25 *701:74 *1639:A 6.42102e-05
26 *701:74 *776:21 0.000118752
27 *701:74 *776:23 4.49498e-05
28 *701:74 *776:25 1.94805e-05
*RES
1 *2016:Q *776:6 4.81 
2 *776:6 *776:8 4.935 
3 *776:8 *1779:A1 3.01 
4 *776:8 *776:21 5.675 
5 *776:21 *776:23 1.38 
6 *776:23 *776:25 0.615 
7 *776:25 *1639:A 6 
8 *776:25 *1642:A1 3.6 
9 *776:23 *1644:A1 6.12 
10 *776:21 *1640:A0 4.395 
11 *776:6 *1778:B2 7.43 
*END

*D_NET *777 0.00069365
*CONN
*I *1623:B1 I *D sky130_fd_sc_hd__a31o_2
*I *2103:Q O *D sky130_fd_sc_hd__dfrtp_2
*CAP
1 *1623:B1 0.000130523
2 *2103:Q 0.000130523
3 *1621:B1 *1623:B1 0
4 *1623:A1 *1623:B1 0.000116158
5 *341:31 *1623:B1 0.00018305
6 *711:20 *1623:B1 8.34348e-05
7 *734:71 *1623:B1 4.99619e-05
*RES
1 *2103:Q *1623:B1 10.815 
*END

*D_NET *778 0.0033923
*CONN
*I *1631:A I *D sky130_fd_sc_hd__and3_2
*I *1630:A1 I *D sky130_fd_sc_hd__a22o_2
*I *1777:A1 I *D sky130_fd_sc_hd__a21o_2
*I *1629:B I *D sky130_fd_sc_hd__nand2_2
*I *2013:Q O *D sky130_fd_sc_hd__dfstp_2
*CAP
1 *1631:A 0.000335624
2 *1630:A1 2.03775e-05
3 *1777:A1 2.6803e-05
4 *1629:B 0.000122928
5 *2013:Q 0.000444027
6 *778:36 0.000442452
7 *778:25 0.000128674
8 *778:10 0.000582376
9 *1630:B2 *1630:A1 4.1652e-06
10 *1631:B *1631:A 0
11 *1631:C *1631:A 4.66108e-05
12 *1777:A2 *1777:A1 3.13354e-05
13 *1777:A2 *778:36 0.000197822
14 *1777:B1 *1777:A1 5.12969e-06
15 *2013:D *778:10 2.12738e-05
16 *2013:D *778:25 4.77757e-05
17 *2013:D *778:36 8.64421e-05
18 *2031:CLK *1629:B 4.89295e-05
19 *338:12 *1630:A1 5.16348e-05
20 *338:12 *1631:A 0.000361313
21 *341:31 *778:25 1.27028e-05
22 *341:31 *778:36 7.46328e-06
23 *345:12 *1629:B 0.000202076
24 *345:12 *778:10 8.12102e-05
25 *685:6 *1631:A 5.83121e-06
26 *685:10 *1631:A 2.49909e-05
27 *685:26 *1631:A 5.23362e-05
*RES
1 *2013:Q *778:10 8.97 
2 *778:10 *1629:B 6.45 
3 *778:10 *778:25 2.45 
4 *778:25 *1777:A1 2.215 
5 *778:25 *778:36 4.175 
6 *778:36 *1630:A1 4.215 
7 *778:36 *1631:A 10.275 
*END

*D_NET *779 0.00148438
*CONN
*I *1628:B I *D sky130_fd_sc_hd__nand3_2
*I *1627:B I *D sky130_fd_sc_hd__and3_2
*I *1617:A I *D sky130_fd_sc_hd__inv_2
*I *2014:Q O *D sky130_fd_sc_hd__dfrtp_2
*CAP
1 *1628:B 5.67826e-05
2 *1627:B 0.000119123
3 *1617:A 2.09833e-05
4 *2014:Q 0.000101085
5 *779:14 0.000204799
6 *779:10 0.00022256
7 *1628:A *1628:B 9.23945e-05
8 *1628:A *779:10 4.1652e-06
9 *1629:A *1627:B 1.14169e-05
10 *1629:A *779:14 2.20014e-05
11 *1632:B1 *1617:A 9.13949e-06
12 *1632:B1 *1627:B 3.16198e-05
13 *1632:B1 *779:14 4.2507e-05
14 *1775:B1 *779:10 6.61181e-05
15 *2031:CLK *1628:B 0.000154488
16 *333:6 *779:14 8.35068e-05
17 *342:10 *1628:B 1.26626e-05
18 *551:33 *1628:B 8.53113e-06
19 *551:33 *779:10 0.00013521
20 *555:31 *1627:B 8.52845e-05
*RES
1 *2014:Q *779:10 5.685 
2 *779:10 *779:14 3.485 
3 *779:14 *1617:A 1.96 
4 *779:14 *1627:B 3.805 
5 *779:10 *1628:B 5.745 
*END
